# 
# This is the geometry file that corresponds to the current relaxation step.
# If you do not want this file to be written, set the "write_restart_geometry" flag to .false.
#  aims_uuid : D1DB81CC-1D1C-4EF9-AC65-8251EEF692BE                                
# 
lattice_vector      3.37005747      0.00000000      0.00000000
lattice_vector     -1.68503154      2.91856025     -0.00000000
lattice_vector     -0.00000000      0.00000000     99.99999106
atom      -0.00017235      0.00011220    -11.65850915 Ti
atom       1.68507020     -0.97293243     -4.59133725 S
atom      -1.68507119      0.97293179    -13.09213350 S
atom       0.00017290     -0.00011095     -6.02494460 Ti
atom       1.68506216     -0.97290148    -10.22695824 S
atom      -1.68506174      0.97290087     -7.45649432 S
# 
# What follows is the current estimated Hessian matrix constructed by the BFGS algorithm.
# This is NOT the true Hessian matrix of the system.
# If you do not want this information here, switch it off using the "hessian_to_restart_geometry" keyword.
# 
trust_radius             0.2000000030
hessian_block                1       1           7.861103           0.000184           0.003142           0.000184           7.861280          -0.001329           0.003142          -0.001329           7.916618
hessian_block                1       2          -0.000223           0.000039          -0.118774           0.000120          -0.000016           0.068493          -0.020703           0.012390           0.297710
hessian_block                1       3          -2.930486          -0.000033           0.118808          -0.000120          -2.930682          -0.068484           0.020704          -0.012387          -3.326842
hessian_block                1       4           0.000294          -0.000185          -0.003154          -0.000183           0.000116           0.001319          -0.003139           0.001324           0.144506
hessian_block                1       5          -2.930601          -0.000164          -0.128884          -0.000061          -2.930601           0.074775          -0.015821           0.009979          -3.394695
hessian_block                1       6          -0.000088           0.000159           0.128862           0.000060          -0.000097          -0.074775           0.015818          -0.009978           0.362703
hessian_block                2       2           5.037388          -0.065380           0.007122          -0.065380           4.962493          -0.003449           0.007122          -0.003449           7.160338
hessian_block                2       3          -0.112635           0.065289          -0.006367           0.065381          -0.037897           0.003426          -0.008958           0.004510          -2.114719
hessian_block                2       4          -2.930492          -0.000110           0.020818          -0.000055          -2.930673          -0.012336           0.120075          -0.069245          -3.329703
hessian_block                2       5           0.116384          -0.067450           0.035943          -0.067166           0.038926          -0.020848           0.085840          -0.049238           2.837614
hessian_block                2       6          -0.110422           0.067531          -0.036814           0.067180          -0.032833           0.020817          -0.085305           0.048928          -2.851241
hessian_block                3       3           5.037076          -0.065291           0.008203          -0.065291           4.962494          -0.004488           0.008203          -0.004488           7.159761
hessian_block                3       4          -0.000196           0.000111          -0.020818           0.000049          -0.000026           0.012333          -0.120110           0.069236           0.295953
hessian_block                3       5          -0.110112           0.067452          -0.037841           0.067067          -0.032826           0.021944          -0.084999           0.049236          -2.851907
hessian_block                3       6           0.116352          -0.067533           0.038711          -0.067082           0.038936          -0.021912           0.084463          -0.048926           2.837755
hessian_block                4       4           7.861101           0.000184           0.003151           0.000184           7.861281          -0.001315           0.003151          -0.001315           7.920106
hessian_block                4       5          -0.000116           0.000147           0.130226           0.000072          -0.000087          -0.075550           0.015886          -0.009973           0.363200
hessian_block                4       6          -2.930591          -0.000141          -0.130203          -0.000071          -2.930611           0.075549          -0.015883           0.009971          -3.394062
hessian_block                5       5           5.045215          -0.069086           0.106963          -0.069086           4.965352          -0.061088           0.106963          -0.061088           7.477887
hessian_block                5       6          -0.120770           0.069174          -0.107869           0.069102          -0.040764           0.061083          -0.106407           0.060767          -2.432099
hessian_block                6       6           5.045519          -0.069189           0.107314          -0.069189           4.965369          -0.060762           0.107314          -0.060762           7.476944
hessian_block_lv             1       1          21.625029           0.000000           0.000000           0.000000          25.000000          -0.000000           0.000000          -0.000000          25.000000
hessian_block_lv             1       2           1.686629          -0.000000          -0.000000          -2.921328           0.000000           0.000000          -0.000000           0.000000           0.000000
hessian_block_lv             1       3           0.000000           0.000000           0.000000           0.000000          -0.000000          -0.000000           0.001387           0.000000           0.000000
hessian_block_lv             2       2          24.157114           1.459921           0.000000           1.459921          22.471342          -0.000000           0.000000          -0.000000          25.000000
hessian_block_lv             2       3          -0.000000           0.000000           0.000000          -0.000000           0.000000          -0.000000          -0.000695           0.001204           0.000000
hessian_block_lv             3       3          25.000000           0.000000          -0.000000           0.000000          25.000000          -0.000000          -0.000000          -0.000000          25.000000
hessian_block_lv_atom        1       1          -0.020327          -0.000000          -0.000000           0.014919           0.000000           0.000000           0.209117          -0.000000          -0.000000
hessian_block_lv_atom        1       2          -1.225264           0.000000           0.000000           0.705934          -0.000000          -0.000000           3.202317          -0.000000          -0.000000
hessian_block_lv_atom        1       3           1.225530          -0.000000          -0.000000          -0.705950           0.000000           0.000000          -3.197629           0.000000           0.000000
hessian_block_lv_atom        1       4           0.020411           0.000000           0.000000          -0.014860          -0.000000          -0.000000          -0.212741           0.000000           0.000000
hessian_block_lv_atom        1       5          -1.224551           0.000000           0.000000           0.708412          -0.000000          -0.000000           2.986271          -0.000000          -0.000000
hessian_block_lv_atom        1       6           1.224201          -0.000000          -0.000000          -0.708455           0.000000           0.000000          -2.987335           0.000000           0.000000
hessian_block_lv_atom        2       1           0.010156          -0.017591          -0.000000          -0.007456           0.012915           0.000000          -0.104418           0.180857          -0.000000
hessian_block_lv_atom        2       2           0.613051          -1.061835          -0.000000          -0.353209           0.611776           0.000000          -1.603605           2.777526          -0.000000
hessian_block_lv_atom        2       3          -0.613185           1.062067           0.000000           0.353217          -0.611789          -0.000000           1.601255          -2.773456           0.000000
hessian_block_lv_atom        2       4          -0.010198           0.017664           0.000000           0.007427          -0.012863          -0.000000           0.106235          -0.184004           0.000000
hessian_block_lv_atom        2       5           0.612718          -1.061259          -0.000000          -0.354462           0.613946           0.000000          -1.494454           2.588471          -0.000000
hessian_block_lv_atom        2       6          -0.612542           1.060953           0.000000           0.354484          -0.613984          -0.000000           1.494987          -2.589393           0.000000
hessian_block_lv_atom        3       1          -0.000000           0.000000          -0.000004           0.000000          -0.000000           0.000001           0.000000          -0.000000           0.000414
hessian_block_lv_atom        3       2          -0.000000          -0.000000           0.000232           0.000000           0.000000          -0.000133          -0.000000           0.000000           0.000558
hessian_block_lv_atom        3       3           0.000000           0.000000          -0.000231          -0.000000          -0.000000           0.000133           0.000000          -0.000000          -0.000558
hessian_block_lv_atom        3       4           0.000000          -0.000000           0.000004          -0.000000           0.000000          -0.000001          -0.000000           0.000000          -0.000415
hessian_block_lv_atom        3       5          -0.000000          -0.000000           0.000243           0.000000           0.000000          -0.000141           0.000000           0.000000           0.001404
hessian_block_lv_atom        3       6           0.000000           0.000000          -0.000244          -0.000000          -0.000000           0.000141          -0.000000          -0.000000          -0.001404
