# 
# This is the geometry file that corresponds to the current relaxation step.
# If you do not want this file to be written, set the "write_restart_geometry" flag to .false.
#  aims_uuid : C45DB482-A9BE-48EC-A948-BC82F4816F97                                
# 
lattice_vector      3.14998114      0.00000000     -0.00000000
lattice_vector     -1.57494797      2.72788991     -0.00000000
lattice_vector      0.00000000     -0.00000000     12.29889596
atom      -0.00111515      1.81905675      3.07486274 Mo
atom       1.57614806      0.90883322      9.22403428 Mo
atom       0.00164344      1.81783989     10.79797952 S
atom       1.57338985      0.91004983      4.64876587 S
atom       1.57338900      0.91005005      1.50091348 S
atom       0.00164431      1.81783998      7.65013200 S
# 
# What follows is the current estimated Hessian matrix constructed by the BFGS algorithm.
# This is NOT the true Hessian matrix of the system.
# If you do not want this information here, switch it off using the "hessian_to_restart_geometry" keyword.
# 
trust_radius             0.0163447721
hessian_block                1       1          14.321826          -3.828585          -0.009605          -3.828585           9.900205           0.005535          -0.009605           0.005535          10.508181
hessian_block                1       2          -6.631832           3.828565           0.009604           3.828529          -2.210212          -0.005535           0.004184          -0.002405          -0.000070
hessian_block                1       3           3.323089          -1.918422          -0.004824          -1.921126           1.109091           0.002793          -0.823342           0.472959           0.010791
hessian_block                1       4          -6.167330           1.917995           0.004823           1.920826          -3.953898          -0.002792          -0.812605           0.466760          -4.243332
hessian_block                1       5          -6.168726           1.918802           0.004823           1.921087          -3.954048          -0.002793           0.826231          -0.474627          -4.264847
hessian_block                1       6           3.322973          -1.918355          -0.004821          -1.920731           1.108862           0.002792           0.815138          -0.468222          -0.010722
hessian_block                2       2          14.321759          -3.828509          -0.004183          -3.828509           9.900140           0.002405          -0.004183           0.002405          10.508183
hessian_block                2       3          -6.168052           1.918394           0.002108           1.921116          -3.954055          -0.001223           0.823159          -0.472973          -4.265150
hessian_block                2       4           3.322332          -1.917967          -0.002108          -1.920816           1.108901           0.001222           0.812423          -0.466774          -0.011032
hessian_block                2       5           3.323729          -1.918774          -0.002106          -1.921077           1.109052           0.001223          -0.826048           0.474641           0.011095
hessian_block                2       6          -6.167936           1.918327           0.002105           1.920721          -3.953826          -0.001222          -0.814956           0.468236          -4.243025
hessian_block                3       3           6.500283          -0.962606          -0.416528          -0.962606           5.391674           0.242236          -0.416528           0.242236           9.540888
hessian_block                3       4          -1.664722           0.962391           0.416801           0.962455          -0.556396          -0.242244          -0.411159           0.239140           3.206912
hessian_block                3       5          -1.667619           0.962796           0.415712           0.962586          -0.558669          -0.242240           0.417974          -0.243072          -3.227320
hessian_block                3       6           1.677021          -0.962571          -0.415802          -0.962407           0.568356           0.242262           0.412428          -0.239875          -3.266120
hessian_block                4       4           6.499542          -0.962240           0.411434          -0.962240           5.391500          -0.239150           0.411434          -0.239150           9.522619
hessian_block                4       5           1.677038          -0.962645           0.410343          -0.962371           0.568372          -0.239145          -0.418247           0.243079          -3.265883
hessian_block                4       6          -1.666861           0.962421          -0.410436           0.962193          -0.558479           0.239168          -0.412703           0.239884          -3.209284
hessian_block                5       5           6.500942          -0.962776          -0.417159          -0.962776           5.391651           0.243076          -0.417159           0.243076           9.540350
hessian_block                5       6          -1.665364           0.962552           0.417248           0.962597          -0.556357          -0.243098          -0.411612           0.239879           3.206605
hessian_block                6       6           6.500166          -0.962373           0.411705          -0.962373           5.391444          -0.239902           0.411705          -0.239902           9.522547
hessian_block_lv             1       1          36.301705           0.000000          -0.000000           0.000000          25.000000           0.000000          -0.000000           0.000000          25.000000
hessian_block_lv             1       2          -5.603694          -0.000000           0.000000           9.705883           0.000000          -0.000000          -0.000000           0.000000          -0.000000
hessian_block_lv             1       3           0.000000          -0.000000           0.000000          -0.000000           0.000000          -0.000000          -1.280572           0.000000          -0.000000
hessian_block_lv             2       2          27.778329          -4.812207           0.000000          -4.812207          33.334987          -0.000000           0.000000          -0.000000          25.000000
hessian_block_lv             2       3          -0.000000           0.000000           0.000000           0.000000          -0.000000          -0.000000           0.640014          -1.108537          -0.000000
hessian_block_lv             3       3          25.000000           0.000000           0.000000           0.000000          25.000000          -0.000000           0.000000          -0.000000          24.982606
hessian_block_lv_atom        1       1          -9.821289          -0.000000           0.000000           5.664963           0.000000          -0.000000           0.021716          -0.000000           0.000000
hessian_block_lv_atom        1       2           9.821060           0.000000          -0.000000          -5.664884          -0.000000           0.000000          -0.014362           0.000000          -0.000000
hessian_block_lv_atom        1       3          -4.934804          -0.000000           0.000000           2.859288           0.000000          -0.000000           2.995813          -0.000000           0.000000
hessian_block_lv_atom        1       4           4.934169           0.000000          -0.000000          -2.858980          -0.000000           0.000000           2.966482          -0.000000           0.000000
hessian_block_lv_atom        1       5           4.934897           0.000000          -0.000000          -2.859244          -0.000000           0.000000          -2.999960           0.000000          -0.000000
hessian_block_lv_atom        1       6          -4.934032          -0.000000           0.000000           2.858857           0.000000          -0.000000          -2.969688           0.000000          -0.000000
hessian_block_lv_atom        2       1           4.886645          -8.463918           0.000000          -2.818617           4.881987          -0.000000          -0.010825           0.018749           0.000000
hessian_block_lv_atom        2       2          -4.886531           8.463720          -0.000000           2.818577          -4.881919           0.000000           0.007166          -0.012412          -0.000000
hessian_block_lv_atom        2       3           2.455419          -4.252911           0.000000          -1.422734           2.464248          -0.000000          -1.501016           2.599837          -0.000000
hessian_block_lv_atom        2       4          -2.455107           4.252369          -0.000000           1.422582          -2.463985           0.000000          -1.486387           2.574498          -0.000000
hessian_block_lv_atom        2       5          -2.455460           4.252981          -0.000000           1.422713          -2.464211           0.000000           1.503081          -2.603412           0.000000
hessian_block_lv_atom        2       6           2.455033          -4.252242           0.000000          -1.422522           2.463880          -0.000000           1.487982          -2.577260           0.000000
hessian_block_lv_atom        3       1          -0.000000           0.000000           0.555003           0.000000          -0.000000          -0.320625          -0.000000          -0.000000          -0.000667
hessian_block_lv_atom        3       2           0.000000          -0.000000          -0.555005          -0.000000           0.000000           0.320622           0.000000           0.000000           0.000276
hessian_block_lv_atom        3       3          -0.000000           0.000000           0.276938           0.000000          -0.000000          -0.159617          -0.000000          -0.000000          -0.048171
hessian_block_lv_atom        3       4           0.000000          -0.000000          -0.276836          -0.000000           0.000000           0.159571          -0.000000          -0.000000          -0.047650
hessian_block_lv_atom        3       5           0.000000          -0.000000          -0.277042          -0.000000           0.000000           0.159612           0.000000           0.000000           0.048354
hessian_block_lv_atom        3       6          -0.000000           0.000000           0.276942           0.000000          -0.000000          -0.159563           0.000000           0.000000           0.047859
