# 
# This is the geometry file that corresponds to the current relaxation step.
# If you do not want this file to be written, set the "write_restart_geometry" flag to .false.
#  aims_uuid : 400CE8E7-83EB-49D5-A692-5F9846114CEF                                
# 
lattice_vector      3.49757223      0.00000000      0.00000000
lattice_vector     -1.74875772      3.02893723     -0.00000000
lattice_vector      0.00000000     -0.00000000     99.99936076
atom      -0.00318703      2.02134691      3.49937898 Mo
atom       1.75199890      1.00758857     10.47062040 Mo
atom       0.00333660      2.01716535     12.29380450 Te
atom       1.74591653      1.01150064      5.32785673 Te
atom       1.74547906      1.01177146      1.67619743 Te
atom       0.00289946      2.01743875      8.64214196 Te
# 
# What follows is the current estimated Hessian matrix constructed by the BFGS algorithm.
# This is NOT the true Hessian matrix of the system.
# If you do not want this information here, switch it off using the "hessian_to_restart_geometry" keyword.
# 
trust_radius             0.0132281513
hessian_block                1       1           7.177297          -2.289649           1.674358          -2.289649           4.524958          -0.968060           1.674358          -0.968060          11.630094
hessian_block                1       2          -3.973144           2.290226          -1.666006           2.289880          -1.319934           0.968326          -1.674562           0.968178          -7.752076
hessian_block                1       3           1.868403          -1.076669           1.312896          -1.076450           0.620316          -0.771458           0.941332          -0.543329           4.017130
hessian_block                1       4          -2.665946           1.189533          -0.297296           1.199945          -1.294368           0.163505          -0.321306           0.185761          -4.842029
hessian_block                1       5          -2.469521           1.075827          -1.318794           1.076546          -1.222950           0.770873          -0.940421           0.542804          -4.958706
hessian_block                1       6           2.062912          -1.189268           0.294843          -1.200272           0.691978          -0.163186           0.320599          -0.185354           3.905587
hessian_block                2       2           7.179318          -2.290457           1.666209          -2.290457           4.525226          -0.968444           1.666209          -0.968444          11.632787
hessian_block                2       3          -2.470819           1.076752          -1.313098           1.076336          -1.222942           0.771578          -0.935886           0.543139          -4.957661
hessian_block                2       4           2.064618          -1.189690           0.297282          -1.200682           0.691881          -0.163495           0.318106          -0.186228           3.902865
hessian_block                2       5           1.866770          -1.075909           1.318997          -1.076433           0.620418          -0.770993           0.934971          -0.542614           4.019873
hessian_block                2       6          -2.666744           1.189425          -0.294828           1.201009          -1.294649           0.163175          -0.317394           0.185820          -4.845788
hessian_block                3       3           3.520508          -0.530615           0.804674          -0.530615           2.908738          -0.472303           0.804674          -0.472303           7.685512
hessian_block                3       4          -0.919389           0.528086          -0.070291           0.534375          -0.306907           0.035246          -0.291205           0.175494           0.717948
hessian_block                3       5          -0.918177           0.530515          -0.808561           0.530618          -0.306608           0.471983          -0.804389           0.472144          -4.743766
hessian_block                3       6           0.919474          -0.527872           0.068731          -0.534461           0.307403          -0.034736           0.291121          -0.175454          -0.719163
hessian_block                4       4           3.735954          -0.659970           0.015996          -0.659970           2.986363          -0.007434           0.015996          -0.007434           7.593905
hessian_block                4       5           0.918502          -0.533592           0.293400          -0.528184           0.307412          -0.175211           0.069648          -0.034870          -0.720135
hessian_block                4       6          -1.133738           0.659924          -0.014992           0.660226          -0.384382           0.007619          -0.015339           0.007049          -4.652553
hessian_block                5       5           3.520113          -0.530518           0.808278          -0.530518           2.908740          -0.471823           0.808278          -0.471823           7.687634
hessian_block                5       6          -0.917688           0.527971          -0.068087           0.533678          -0.307012           0.034360          -0.293320           0.175171           0.715100
hessian_block                6       6           3.735784          -0.660179           0.014334          -0.660179           2.986662          -0.007233           0.014334          -0.007233           7.596817
hessian_block_lv             1       1          29.006896           0.000000          -0.000000           0.000000          25.000000          -0.000000          -0.000000          -0.000000          25.000000
hessian_block_lv             1       2          -1.995292          -0.000000           0.000000           3.455947           0.000000          -0.000000          -0.000000          -0.000000          -0.000000
hessian_block_lv             1       3          -0.000000          -0.000000          -0.000000           0.000000          -0.000000          -0.000000          -0.564070           0.000000          -0.000000
hessian_block_lv             2       2          25.993560          -1.720897           0.000000          -1.720897          27.980680          -0.000000           0.000000          -0.000000          25.000000
hessian_block_lv             2       3           0.000000          -0.000000           0.000000          -0.000000           0.000000           0.000000           0.282511          -0.489323          -0.000000
hessian_block_lv             3       3          25.000000          -0.000000           0.000000          -0.000000          25.000000           0.000000           0.000000           0.000000          24.983068
hessian_block_lv_atom        1       1          -6.491714           0.000000           0.000000           3.750232          -0.000000          -0.000000          -1.863733           0.000000          -0.000000
hessian_block_lv_atom        1       2           6.494104          -0.000000          -0.000000          -3.751431           0.000000           0.000000           1.863631          -0.000000           0.000000
hessian_block_lv_atom        1       3          -2.943602           0.000000           0.000000           1.689058          -0.000000          -0.000000           1.159914           0.000000          -0.000000
hessian_block_lv_atom        1       4           3.629785          -0.000000          -0.000000          -2.106416           0.000000           0.000000           2.978791          -0.000000          -0.000000
hessian_block_lv_atom        1       5           2.940368          -0.000000          -0.000000          -1.689203           0.000000           0.000000          -1.161128          -0.000000           0.000000
hessian_block_lv_atom        1       6          -3.628941           0.000000           0.000000           2.107760          -0.000000          -0.000000          -2.977476           0.000000           0.000000
hessian_block_lv_atom        2       1           3.245891          -5.622049          -0.000000          -1.875143           3.247843           0.000000           0.932940          -1.615899          -0.000000
hessian_block_lv_atom        2       2          -3.247084           5.624114           0.000000           1.875744          -3.248884          -0.000000          -0.932889           1.615811           0.000000
hessian_block_lv_atom        2       3           1.471824          -2.549274          -0.000000          -0.844540           1.462786           0.000000          -0.579764           1.004181          -0.000000
hessian_block_lv_atom        2       4          -1.815015           3.143698           0.000000           1.053274          -1.824324          -0.000000          -1.490778           2.582104          -0.000000
hessian_block_lv_atom        2       5          -1.470209           2.546476           0.000000           0.844612          -1.462911          -0.000000           0.580370          -1.005230           0.000000
hessian_block_lv_atom        2       6           1.814592          -3.142965          -0.000000          -1.053947           1.825490           0.000000           1.490122          -2.580967           0.000000
hessian_block_lv_atom        3       1           0.000000          -0.000000           0.014254          -0.000000           0.000000          -0.008083           0.000000           0.000000          -0.102754
hessian_block_lv_atom        3       2          -0.000000           0.000000          -0.014478           0.000000          -0.000000           0.008083          -0.000000          -0.000000           0.102776
hessian_block_lv_atom        3       3           0.000000          -0.000000          -0.007692          -0.000000           0.000000           0.004730           0.000000           0.000000          -0.168878
hessian_block_lv_atom        3       4          -0.000000           0.000000          -0.021471           0.000000          -0.000000           0.012798           0.000000           0.000000          -0.057496
hessian_block_lv_atom        3       5          -0.000000           0.000000           0.007863           0.000000          -0.000000          -0.004716          -0.000000          -0.000000           0.168938
hessian_block_lv_atom        3       6           0.000000          -0.000000           0.021524          -0.000000           0.000000          -0.012812          -0.000000          -0.000000           0.057413
