# 
# This is the geometry file that corresponds to the current relaxation step.
# If you do not want this file to be written, set the "write_restart_geometry" flag to .false.
#  aims_uuid : D48A0166-DB97-4B17-A290-FE6382F22C78                                
# 
lattice_vector      3.27966880     -0.00000000      0.00000000
lattice_vector     -1.63981391      2.84024102      0.00000000
lattice_vector      0.00000000      0.00000000     99.99979914
atom      -0.00144968      1.89430017      3.21948629 Mo
atom       1.64130195      0.94594029      9.69051339 Mo
atom       0.00152601      1.89265914     11.36957881 Se
atom       1.63835531      0.94757264      4.90132029 Se
atom       1.63832549      0.94758238      1.54042088 Se
atom       0.00150558      1.89266842      8.00868034 Se
# 
# What follows is the current estimated Hessian matrix constructed by the BFGS algorithm.
# This is NOT the true Hessian matrix of the system.
# If you do not want this information here, switch it off using the "hessian_to_restart_geometry" keyword.
# 
trust_radius             0.0057852397
hessian_block                1       1          10.295577          -2.894983          -0.094396          -2.894983           6.975177          -0.055861          -0.094396          -0.055861          16.482256
hessian_block                1       2          -5.011885           2.904147          -0.021754           2.893790          -1.677117           0.039227           0.094880           0.055523          -9.457951
hessian_block                1       3           2.518423          -1.458823          -0.034240          -1.452185           0.841227           0.016615           0.230165          -0.191759           4.664449
hessian_block                1       4          -4.110433           1.426137           0.035261           1.426568          -2.475859           0.052698           0.053556           0.020070          -7.663214
hessian_block                1       5          -4.161116           1.454918           0.077155           1.452862          -2.490313          -0.007575          -0.230858           0.192358          -7.191268
hessian_block                1       6           2.469435          -1.431396           0.037974          -1.426052           0.826885          -0.045104          -0.053347          -0.020332           5.165728
hessian_block                2       2          10.324017          -2.902746           0.021209          -2.902746           6.973438          -0.038899           0.021209          -0.038899          16.472237
hessian_block                2       3          -4.173988           1.458195           0.034504           1.456241          -2.489448          -0.016770          -0.294877           0.182940          -7.171668
hessian_block                2       4           2.468772          -1.425508          -0.035509          -1.431501           0.826775          -0.052518          -0.002102          -0.012290           5.150939
hessian_block                2       5           2.518971          -1.454366          -0.077395          -1.457033           0.841342           0.007735           0.295781          -0.183509           4.679184
hessian_block                2       6          -4.125888           1.430635          -0.037688           1.430891          -2.474990           0.044928           0.001743           0.012531          -7.672741
hessian_block                3       3           4.913841          -0.731790           0.115012          -0.731790           4.066847          -0.067081           0.115012          -0.067081           9.747061
hessian_block                3       4          -1.239716           0.714832          -0.126652           0.718348          -0.414212           0.113723          -0.010958           0.009516           0.665897
hessian_block                3       5          -1.265857           0.729955          -0.091615           0.732140          -0.422210           0.071965          -0.115405           0.067314          -5.225135
hessian_block                3       6           1.247298          -0.717053           0.167969          -0.718070           0.417797          -0.109789           0.011088          -0.009595          -0.680604
hessian_block                4       4           4.857131          -0.702265           0.003268          -0.702265           4.053134          -0.035430           0.003268          -0.035430           9.759178
hessian_block                4       5           1.240453          -0.716294          -0.008387          -0.715188           0.418239          -0.013667           0.127035          -0.114075          -0.678728
hessian_block                4       6          -1.216207           0.705144          -0.035377           0.701992          -0.408077           0.031801          -0.003402           0.035603          -5.234073
hessian_block                5       5           4.907768          -0.730265           0.091930          -0.730265           4.067264          -0.072215           0.091930          -0.072215           9.764751
hessian_block                5       6          -1.240218           0.717482          -0.168483           0.716051          -0.414322           0.110127           0.008312           0.013757           0.651195
hessian_block                6       6           4.865580          -0.704812           0.035606          -0.704812           4.052707          -0.031964           0.035606          -0.031964           9.770494
hessian_block_lv             1       1          37.525089           0.000000           0.000000           0.000000          25.000000           0.000000           0.000000           0.000000          25.000000
hessian_block_lv             1       2          -6.261190          -0.000000          -0.000000          10.844699           0.000000           0.000000           0.000000           0.000000          -0.000000
hessian_block_lv             1       3          -0.000000          -0.000000           0.000000           0.000000          -0.000000          -0.000000          -0.332025          -0.000000           0.000000
hessian_block_lv             2       2          28.129996          -5.421311          -0.000000          -5.421311          34.389987           0.000000          -0.000000           0.000000          25.000000
hessian_block_lv             2       3           0.000000          -0.000000           0.000000          -0.000000           0.000000          -0.000000           0.166329          -0.288090           0.000000
hessian_block_lv             3       3          25.000000           0.000000          -0.000000           0.000000          25.000000           0.000000          -0.000000           0.000000          24.991474
hessian_block_lv_atom        1       1          -8.180088          -0.000000           0.000000           4.732385           0.000000          -0.000000          -1.692043          -0.000000           0.000000
hessian_block_lv_atom        1       2           8.193529           0.000000          -0.000000          -4.731250          -0.000000           0.000000           1.689962           0.000000          -0.000000
hessian_block_lv_atom        1       3          -4.255546          -0.000000           0.000000           2.463634           0.000000          -0.000000           3.823869           0.000000           0.000000
hessian_block_lv_atom        1       4           4.123639           0.000000          -0.000000          -2.377051          -0.000000           0.000000           2.744067           0.000000           0.000000
hessian_block_lv_atom        1       5           4.240150           0.000000          -0.000000          -2.463748          -0.000000           0.000000          -3.821788          -0.000000          -0.000000
hessian_block_lv_atom        1       6          -4.121683          -0.000000           0.000000           2.376031           0.000000          -0.000000          -2.744067          -0.000000          -0.000000
hessian_block_lv_atom        2       1           4.091655          -7.086955           0.000000          -2.367448           4.100540          -0.000000           0.875716          -1.516785           0.000000
hessian_block_lv_atom        2       2          -4.098719           7.099190          -0.000000           2.366831          -4.099472           0.000000          -0.874660           1.514955          -0.000000
hessian_block_lv_atom        2       3           2.128753          -3.687108           0.000000          -1.232399           2.134578          -0.000000          -1.899482           3.290000           0.000000
hessian_block_lv_atom        2       4          -2.062768           3.572818          -0.000000           1.189284          -2.059900           0.000000          -1.386259           2.401071           0.000000
hessian_block_lv_atom        2       5          -2.120920           3.673542          -0.000000           1.232483          -2.134723           0.000000           1.898390          -3.288109          -0.000000
hessian_block_lv_atom        2       6           2.061999          -3.571487           0.000000          -1.188751           2.058978          -0.000000           1.386295          -2.401133          -0.000000
hessian_block_lv_atom        3       1          -0.000000           0.000000          -0.032543           0.000000          -0.000000           0.018902           0.000000          -0.000000          -0.038668
hessian_block_lv_atom        3       2           0.000000          -0.000000           0.032745          -0.000000           0.000000          -0.018879          -0.000000           0.000000           0.038671
hessian_block_lv_atom        3       3          -0.000000           0.000000          -0.017937           0.000000          -0.000000           0.010349          -0.000000          -0.000000          -0.012836
hessian_block_lv_atom        3       4           0.000000          -0.000000           0.019057          -0.000000           0.000000          -0.011367          -0.000000           0.000000          -0.074071
hessian_block_lv_atom        3       5           0.000000          -0.000000           0.017994          -0.000000           0.000000          -0.010370           0.000000           0.000000           0.012836
hessian_block_lv_atom        3       6          -0.000000           0.000000          -0.019315           0.000000          -0.000000           0.011364           0.000000          -0.000000           0.074067
