# 
# This is the geometry file that corresponds to the current relaxation step.
# If you do not want this file to be written, set the "write_restart_geometry" flag to .false.
#  aims_uuid : 9A01521A-C684-44DE-AE64-A73781BAC9CF                                
# 
lattice_vector      3.77938260      0.00000000     -0.00000000
lattice_vector     -1.88970706      3.27306864     -0.00000000
lattice_vector     -0.00000000      0.00000000      4.95305010
atom      -0.00000567      0.00000040      0.00001294 Pt
atom       0.00003867      2.18201020      3.66708404 Se
atom       1.88964254      1.09105804      1.28595312 Se
# 
# What follows is the current estimated Hessian matrix constructed by the BFGS algorithm.
# This is NOT the true Hessian matrix of the system.
# If you do not want this information here, switch it off using the "hessian_to_restart_geometry" keyword.
# 
trust_radius             0.1282783606
hessian_block                1       1           6.777990          -0.000013          -0.000115          -0.000013           6.777873           0.000013          -0.000115           0.000013           5.483823
hessian_block                1       2          -2.376930          -0.001338          -0.012208          -0.006970          -2.388159           0.007087           0.000991           0.000052          -1.744146
hessian_block                1       3          -2.401059           0.001351           0.012322           0.006984          -2.389714          -0.007101          -0.000876          -0.000066          -1.739677
hessian_block                2       2           5.591129          -0.677443          -0.218543          -0.677443           4.817668           0.127494          -0.218543           0.127494           8.304391
hessian_block                2       3          -1.214199           0.684413           0.217552           0.678781          -0.429509          -0.127547           0.230750          -0.134582          -4.560245
hessian_block                3       3           5.615258          -0.685765          -0.229874          -0.685765           4.819223           0.134647          -0.229874           0.134647           8.299922
hessian_block_lv             1       1          18.542640          -0.000000           0.000000          -0.000000          25.000000           0.000000           0.000000           0.000000          25.000000
hessian_block_lv             1       2           3.226986           0.000000          -0.000000          -5.589304          -0.000000           0.000000           0.000000           0.000000          -0.000000
hessian_block_lv             1       3           0.000000           0.000000          -0.000000           0.000000          -0.000000           0.000000          -2.500643          -0.000000           0.000000
hessian_block_lv             2       2          23.387354           2.793185          -0.000000           2.793185          20.162061           0.000000          -0.000000           0.000000          25.000000
hessian_block_lv             2       3          -0.000000           0.000000          -0.000000          -0.000000           0.000000           0.000000           1.251251          -2.167231           0.000000
hessian_block_lv             3       3          25.000000           0.000000          -0.000000           0.000000          25.000000           0.000000          -0.000000           0.000000          24.305144
hessian_block_lv_atom        1       1          -0.010559          -0.000000           0.000000           0.001094           0.000000          -0.000000           0.011522           0.000000          -0.000000
hessian_block_lv_atom        1       2          -1.688304          -0.000000           0.000000           0.977699           0.000000          -0.000000          -2.850762           0.000000           0.000000
hessian_block_lv_atom        1       3           1.698862           0.000000          -0.000000          -0.978794          -0.000000           0.000000           2.839241          -0.000000          -0.000000
hessian_block_lv_atom        2       1           0.005302          -0.009183          -0.000000          -0.000550           0.000953           0.000000          -0.005777           0.010006           0.000000
hessian_block_lv_atom        2       2           0.848091          -1.468937           0.000000          -0.491135           0.850671          -0.000000           1.427743          -2.472923          -0.000000
hessian_block_lv_atom        2       3          -0.853393           1.478121          -0.000000           0.491685          -0.851624           0.000000          -1.421966           2.462917           0.000000
hessian_block_lv_atom        3       1           0.000000          -0.000000          -0.001299          -0.000000           0.000000           0.000175          -0.000000           0.000000           0.000933
hessian_block_lv_atom        3       2           0.000000          -0.000000          -0.422924          -0.000000           0.000000           0.245013          -0.000000           0.000000           0.186035
hessian_block_lv_atom        3       3          -0.000000           0.000000           0.424223           0.000000          -0.000000          -0.245187           0.000000          -0.000000          -0.186967
