# 
# This is the geometry file that corresponds to the current relaxation step.
# If you do not want this file to be written, set the "write_restart_geometry" flag to .false.
#  aims_uuid : 86235006-DA7C-4927-AAE2-6445131754D2                                
# 
lattice_vector      3.60571012     -0.00000000     -0.00000000
lattice_vector     -1.80287671      3.12267406      0.00000000
lattice_vector     -0.00000000      0.00000000     99.99838403
atom      -0.00010304     -0.00080454    -12.81205816 Hf
atom      -1.80264812      1.04166008     -5.47727491 S
atom       1.80264726     -1.04167824    -14.27623947 S
atom       0.00010318      0.00083785     -6.94104348 Hf
atom      -1.80284553      1.04003837    -11.34787794 S
atom       1.80284625     -1.04005351     -8.40562597 S
# 
# What follows is the current estimated Hessian matrix constructed by the BFGS algorithm.
# This is NOT the true Hessian matrix of the system.
# If you do not want this information here, switch it off using the "hessian_to_restart_geometry" keyword.
# 
trust_radius             0.0066066544
hessian_block                1       1           5.386463           0.001642           0.039960           0.001642           5.393156           0.013122           0.039960           0.013122          19.694996
hessian_block                1       2           0.019639          -0.046931          -0.178083          -0.012111           0.025028           0.023360           0.034779           0.013462           2.051994
hessian_block                1       3          -1.712779           0.046911           0.176568           0.010982          -1.724178          -0.025236          -0.036640           0.044944          -9.670312
hessian_block                1       4          -0.000274          -0.001695          -0.037557           0.000475           0.004801           0.005199          -0.036349          -0.129925          -2.437578
hessian_block                1       5          -1.673734          -0.048457          -0.231841          -0.011284          -1.668629           0.091218           0.000076          -0.072778          -9.008818
hessian_block                1       6          -0.019316           0.048530           0.230952           0.010296          -0.030178          -0.107663          -0.001825           0.131175           1.369717
hessian_block                2       2           4.425496          -0.409840           0.358616          -0.409840           3.922145          -0.201351           0.358616          -0.201351           8.596903
hessian_block                2       3          -0.734158           0.410332          -0.358353           0.433547          -0.241952           0.169090          -0.028007           0.038805          -2.957479
hessian_block                2       4          -1.712042           0.011687          -0.036489          -0.002214          -1.693314           0.037129          -0.483965           0.302022          -7.726315
hessian_block                2       5           0.717478          -0.399843           0.328970          -0.399120           0.223566          -0.178891           0.138177          -0.020392           2.225678
hessian_block                2       6          -0.716413           0.399775          -0.327522           0.424558          -0.235474           0.160561           0.193262          -0.142443          -0.190782
hessian_block                3       3           4.427118          -0.434027           0.028314          -0.434027           3.951112          -0.065590           0.028314          -0.065590           9.431340
hessian_block                3       4           0.018923          -0.010467           0.034669           0.002207          -0.003528           0.003726           0.484338          -0.181921           2.326162
hessian_block                3       5          -0.717297           0.424588           0.014484           0.399594          -0.234445          -0.006724          -0.137408           0.058257           1.279493
hessian_block                3       6           0.718193          -0.424622          -0.012819          -0.425017           0.252991          -0.015162          -0.193459           0.045399           1.590797
hessian_block                4       4           5.386604          -0.000592           0.041311          -0.000592           5.388558          -0.087104           0.041311          -0.087104          15.254357
hessian_block                4       5          -0.018612          -0.002670          -0.455842           0.010890           0.000166           0.280393          -0.000126          -0.011895           0.376066
hessian_block                4       6          -1.674599           0.002794           0.450507          -0.009823          -1.696682          -0.183465          -0.001807           0.052946          -5.792692
hessian_block                5       5           4.394068          -0.389943           0.148544          -0.389943           3.909906          -0.043008           0.148544          -0.043008           8.965880
hessian_block                5       6          -0.701904           0.389864          -0.149261           0.416326          -0.230564           0.089817           0.195685          -0.142989          -1.838299
hessian_block                6       6           4.394039          -0.416341          -0.191857          -0.416341           3.939907           0.055912          -0.191857           0.055912           6.861259
hessian_block_lv             1       1          22.521056          -0.000000          -0.000000          -0.000000          25.000000           0.000000          -0.000000           0.000000          25.000000
hessian_block_lv             1       2           1.257329           0.000000           0.000000          -2.177757          -0.000000          -0.000000          -0.000000          -0.000000          -0.000000
hessian_block_lv             1       3           0.000000           0.000000           0.000000          -0.000000          -0.000000          -0.000000           0.045091           0.000000           0.000000
hessian_block_lv             2       2          24.362983           1.103345           0.000000           1.103345          23.088950          -0.000000           0.000000          -0.000000          25.000000
hessian_block_lv             2       3          -0.000000           0.000000           0.000000           0.000000          -0.000000          -0.000000          -0.024485           0.042409           0.000000
hessian_block_lv             3       3          25.000000           0.000000          -0.000000           0.000000          25.000000           0.000000          -0.000000           0.000000          24.973991
hessian_block_lv_atom        1       1           0.012589           0.000000           0.000000          -0.132383          -0.000000          -0.000000           1.423456           0.000000           0.000000
hessian_block_lv_atom        1       2           1.691002          -0.000000          -0.000000          -0.929275           0.000000           0.000000           4.310826          -0.000000           0.000000
hessian_block_lv_atom        1       3          -1.690990           0.000000           0.000000           1.017371          -0.000000          -0.000000          -3.591531           0.000000          -0.000000
hessian_block_lv_atom        1       4          -0.010875          -0.000000          -0.000000          -0.051020           0.000000          -0.000000          -2.865986          -0.000000          -0.000000
hessian_block_lv_atom        1       5           1.685318          -0.000000          -0.000000          -0.902975           0.000000           0.000000           2.092282          -0.000000          -0.000000
hessian_block_lv_atom        1       6          -1.687043           0.000000           0.000000           0.998282          -0.000000          -0.000000          -1.369048           0.000000           0.000000
hessian_block_lv_atom        2       1          -0.007035           0.012185           0.000000           0.067339          -0.116634          -0.000000          -0.812249           1.406857           0.000000
hessian_block_lv_atom        2       2          -0.836773           1.449334           0.000000           0.460043          -0.796818          -0.000000          -2.133650           3.695590           0.000000
hessian_block_lv_atom        2       3           0.836799          -1.449379          -0.000000          -0.504768           0.874284           0.000000           1.838921          -3.185105          -0.000000
hessian_block_lv_atom        2       4           0.006091          -0.010550          -0.000000           0.025425          -0.044037          -0.000000           1.403297          -2.430582          -0.000000
hessian_block_lv_atom        2       5          -0.833110           1.442989           0.000000           0.446619          -0.773567          -0.000000          -0.981931           1.700754          -0.000000
hessian_block_lv_atom        2       6           0.834028          -1.444578          -0.000000          -0.494658           0.856773           0.000000           0.685611          -1.187513           0.000000
hessian_block_lv_atom        3       1          -0.000000           0.000000          -0.004744           0.000000          -0.000000           0.008536          -0.000000           0.000000          -0.254491
hessian_block_lv_atom        3       2           0.000000           0.000000           0.034197          -0.000000          -0.000000          -0.020744          -0.000000           0.000000          -0.034012
hessian_block_lv_atom        3       3          -0.000000          -0.000000          -0.034094           0.000000           0.000000           0.016874           0.000000          -0.000000           0.149557
hessian_block_lv_atom        3       4           0.000000          -0.000000           0.004253           0.000000           0.000000          -0.001285           0.000000          -0.000000           0.022192
hessian_block_lv_atom        3       5           0.000000           0.000000           0.038673          -0.000000          -0.000000          -0.021179           0.000000          -0.000000           0.228539
hessian_block_lv_atom        3       6          -0.000000          -0.000000          -0.038285           0.000000           0.000000           0.017799          -0.000000           0.000000          -0.111786
