# 
# This is the geometry file that corresponds to the current relaxation step.
# If you do not want this file to be written, set the "write_restart_geometry" flag to .false.
#  aims_uuid : 6753BC44-6BB5-4111-A9FF-938DFF732490                                
# 
lattice_vector      3.14967086      0.00000000     -0.00000000
lattice_vector     -1.57481495      2.72765950      0.00000000
lattice_vector     -0.00000000     -0.00000000     99.99992379
atom      -0.00135107      1.81905297      3.07038400 Mo
atom       1.57620678      0.90860585      9.22961578 Mo
atom       0.00175846      1.81759588     10.80189696 S
atom       1.57316691      0.91002018      4.64420058 S
atom       1.57309460      0.91006406      1.49810314 S
atom       0.00169206      1.81763956      7.65579954 S
# 
# What follows is the current estimated Hessian matrix constructed by the BFGS algorithm.
# This is NOT the true Hessian matrix of the system.
# If you do not want this information here, switch it off using the "hessian_to_restart_geometry" keyword.
# 
trust_radius             0.0181205166
hessian_block                1       1          14.174341          -3.740383           0.042166          -3.740383           9.847499          -0.024648           0.042166          -0.024648          10.548770
hessian_block                1       2          -6.484589           3.740493          -0.042207           3.741960          -2.158465           0.024731          -0.041132           0.024052          -0.040646
hessian_block                1       3           3.286456          -1.895719           0.021946          -1.900193           1.096087          -0.012411          -0.742106           0.426399           0.387355
hessian_block                1       4          -6.049425           1.848415          -0.019245           1.852670          -3.913676           0.010984          -0.601735           0.345492          -3.916237
hessian_block                1       5          -6.132981           1.896620          -0.022297           1.899222          -3.940490           0.012364           0.741691          -0.426160          -4.641403
hessian_block                1       6           3.206198          -1.849427           0.019636          -1.853277           1.069045          -0.011019           0.601115          -0.345135          -0.337839
hessian_block                2       2          14.174724          -3.742071           0.041173          -3.742071           9.849319          -0.024134           0.041173          -0.024134          10.548696
hessian_block                2       3          -6.131517           1.896519          -0.021422           1.900249          -3.941513           0.012108           0.741814          -0.425830          -4.641242
hessian_block                2       4           3.204539          -1.849193           0.018734          -1.852725           1.069145          -0.010688           0.601472          -0.344947          -0.337672
hessian_block                2       5           3.288116          -1.897422           0.021772          -1.899278           1.095990          -0.012061          -0.741399           0.425590           0.387225
hessian_block                2       6          -6.051273           1.850206          -0.019125           1.853331          -3.914476           0.010724          -0.600852           0.344590          -3.916361
hessian_block                3       3           6.498637          -0.963069          -0.371754          -0.963069           5.389808           0.216212          -0.371754           0.216212           9.965893
hessian_block                3       4          -1.624087           0.939016           0.376948           0.938984          -0.542897          -0.218014          -0.300943           0.175322           3.239268
hessian_block                3       5          -1.666456           0.963529           0.369085           0.962577          -0.556548          -0.216519           0.371544          -0.216091          -3.652679
hessian_block                3       6           1.636966          -0.939531          -0.373987          -0.939292           0.555062           0.217752           0.300629          -0.175140          -3.298595
hessian_block                4       4           6.418713          -0.915512           0.307073          -0.915512           5.364487          -0.177789           0.307073          -0.177789           9.193124
hessian_block                4       5           1.636842          -0.939429           0.298510          -0.938537           0.554608          -0.175619          -0.376744           0.217896          -3.298574
hessian_block                4       6          -1.586581           0.916011          -0.304378           0.915811          -0.531667           0.177541          -0.306767           0.177612          -2.879909
hessian_block                5       5           6.500228          -0.963036          -0.368874          -0.963036           5.389239           0.216398          -0.368874           0.216398           9.966019
hessian_block                5       6          -1.625749           0.939052           0.373782           0.939737          -0.542798          -0.217634          -0.298196           0.175437           3.239413
hessian_block                6       6           6.420439          -0.916310           0.304072          -0.916310           5.364833          -0.177364           0.304072          -0.177364           9.193291
hessian_block_lv             1       1          36.615677           0.000000          -0.000000           0.000000          25.000000          -0.000000          -0.000000          -0.000000          25.000000
hessian_block_lv             1       2          -5.798662          -0.000000           0.000000          10.043577           0.000000          -0.000000           0.000000          -0.000000          -0.000000
hessian_block_lv             1       3          -0.000000          -0.000000          -0.000000          -0.000000          -0.000000          -0.000000          -0.065260           0.000000          -0.000000
hessian_block_lv             2       2          27.894736          -5.013830          -0.000000          -5.013830          33.684208           0.000000          -0.000000           0.000000          25.000000
hessian_block_lv             2       3           0.000000          -0.000000           0.000000           0.000000          -0.000000          -0.000000           0.032656          -0.056562           0.000000
hessian_block_lv             3       3          25.000000          -0.000000          -0.000000          -0.000000          25.000000          -0.000000          -0.000000          -0.000000          24.999880
hessian_block_lv_atom        1       1          -9.738142          -0.000000           0.000000           5.612622           0.000000          -0.000000           0.022898          -0.000000          -0.000000
hessian_block_lv_atom        1       2           9.738163           0.000000          -0.000000          -5.614596          -0.000000           0.000000          -0.024237           0.000000           0.000000
hessian_block_lv_atom        1       3          -4.930099          -0.000000           0.000000           2.855621           0.000000          -0.000000           2.952232          -0.000000          -0.000000
hessian_block_lv_atom        1       4           4.832970           0.000000          -0.000000          -2.798426          -0.000000           0.000000           2.366222          -0.000000          -0.000000
hessian_block_lv_atom        1       5           4.929943           0.000000          -0.000000          -2.854405          -0.000000           0.000000          -2.951694           0.000000           0.000000
hessian_block_lv_atom        1       6          -4.832835          -0.000000           0.000000           2.799184           0.000000          -0.000000          -2.365420           0.000000           0.000000
hessian_block_lv_atom        2       1           4.867091          -8.430049          -0.000000          -2.805164           4.858687           0.000000          -0.011115           0.019251          -0.000000
hessian_block_lv_atom        2       2          -4.867101           8.430067           0.000000           2.806151          -4.860396          -0.000000           0.011784          -0.020410           0.000000
hessian_block_lv_atom        2       3           2.464043          -4.267848          -0.000000          -1.427234           2.472042           0.000000          -1.474365           2.553674          -0.000000
hessian_block_lv_atom        2       4          -2.415523           4.183809           0.000000           1.398663          -2.422555          -0.000000          -1.181347           2.046154          -0.000000
hessian_block_lv_atom        2       5          -2.463964           4.267711           0.000000           1.426627          -2.470990          -0.000000           1.474096          -2.553209           0.000000
hessian_block_lv_atom        2       6           2.415455          -4.183691          -0.000000          -1.399042           2.423212           0.000000           1.180947          -2.045460           0.000000
hessian_block_lv_atom        3       1           0.000000          -0.000000           0.025360          -0.000000           0.000000          -0.014651          -0.000000          -0.000000          -0.000544
hessian_block_lv_atom        3       2          -0.000000           0.000000          -0.025361           0.000000          -0.000000           0.014656           0.000000           0.000000           0.000549
hessian_block_lv_atom        3       3           0.000000          -0.000000           0.012871          -0.000000           0.000000          -0.007416           0.000000          -0.000000          -0.003560
hessian_block_lv_atom        3       4          -0.000000           0.000000          -0.012435           0.000000          -0.000000           0.007165          -0.000000          -0.000000          -0.004025
hessian_block_lv_atom        3       5          -0.000000           0.000000          -0.012884           0.000000          -0.000000           0.007413          -0.000000           0.000000           0.003558
hessian_block_lv_atom        3       6           0.000000          -0.000000           0.012449          -0.000000           0.000000          -0.007167           0.000000           0.000000           0.004022
