# 
# This is the geometry file that corresponds to the current relaxation step.
# If you do not want this file to be written, set the "write_restart_geometry" flag to .false.
#  aims_uuid : FD5BD29C-62D7-4D72-AF54-E5E0CC3F68F1                                
# 
lattice_vector      2.50604608      0.00000000     -0.00000000
lattice_vector     -1.25302629      2.17030519     -0.00000000
lattice_vector     -0.00000000     -0.00000000    100.00001629
atom      -0.00008532      1.44728413      2.15714718 B
atom       1.25310511      0.72302106      5.55011783 B
atom       0.00004462      1.44648069      5.55152774 N
atom       1.25297517      0.72382450      2.15573727 N
# 
# What follows is the current estimated Hessian matrix constructed by the BFGS algorithm.
# This is NOT the true Hessian matrix of the system.
# If you do not want this information here, switch it off using the "hessian_to_restart_geometry" keyword.
# 
trust_radius             0.4471252182
hessian_block                1       1          87.962709          12.398896           0.325325          12.398896         102.321586          -0.191305           0.325325          -0.191305          11.267986
hessian_block                1       2          21.506704         -12.398656          -0.325325         -12.398654           7.148102           0.191306          -0.325324           0.191305           0.408648
hessian_block                1       3         -21.512654          12.402083           0.324882          12.424823          -7.163153          -0.188173           0.561338          -0.326760           0.497733
hessian_block                1       4         -85.956760         -12.402322          -0.324882         -12.425064        -100.306535           0.188173          -0.561339           0.326761         -10.174367
hessian_block                2       2          87.962710          12.398894           0.325324          12.398894         102.321588          -0.191305           0.325324          -0.191305          11.267986
hessian_block                2       3         -85.956760         -12.402320          -0.324881         -12.425062        -100.306537           0.188173          -0.561338           0.326760         -10.174367
hessian_block                2       4         -21.512654          12.402081           0.324881          12.424824          -7.163153          -0.188172           0.561339          -0.326761           0.497732
hessian_block                3       3          87.950824          12.428494           0.561746          12.428494         102.291470          -0.328710           0.561746          -0.328710          11.342527
hessian_block                3       4          21.518590         -12.428255          -0.561746         -12.428257           7.178220           0.328710          -0.561747           0.328711           0.334107
hessian_block                4       4          87.950824          12.428496           0.561747          12.428496         102.291468          -0.328710           0.561747          -0.328710          11.342528
hessian_block_lv             1       1          72.996249          -0.000000          -0.000000          -0.000000          25.000000           0.000000          -0.000000           0.000000          25.000000
hessian_block_lv             1       2         -23.994475           0.000000           0.000000          41.559649          -0.000000          -0.000000           0.000000          -0.000000           0.000000
hessian_block_lv             1       3           0.000000           0.000000          -0.000000          -0.000000          -0.000000           0.000000           0.003307           0.000000          -0.000000
hessian_block_lv             2       2          36.996418         -20.778406          -0.000000         -20.778406          60.989254           0.000000          -0.000000           0.000000          25.000000
hessian_block_lv             2       3          -0.000000           0.000000          -0.000000           0.000000          -0.000000           0.000000          -0.001634           0.002831           0.000000
hessian_block_lv             3       3          25.000000           0.000000          -0.000000           0.000000          25.000000           0.000000          -0.000000           0.000000          24.999999
hessian_block_lv_atom        1       1         -26.962125          -0.000000          -0.000000          15.636007           0.000000           0.000000          -0.741513          -0.000000           0.000000
hessian_block_lv_atom        1       2          26.962125           0.000000           0.000000         -15.636013          -0.000000          -0.000000           0.741512           0.000000          -0.000000
hessian_block_lv_atom        1       3         -26.961383          -0.000000          -0.000000          15.627400           0.000000           0.000000          -1.230996           0.000000           0.000000
hessian_block_lv_atom        1       4          26.961383           0.000000           0.000000         -15.627393          -0.000000          -0.000000           1.230997          -0.000000          -0.000000
hessian_block_lv_atom        2       1          13.488054         -23.361995           0.000000          -7.822365          13.548733          -0.000000           0.365734          -0.633470           0.000000
hessian_block_lv_atom        2       2         -13.488054          23.361995          -0.000000           7.822368         -13.548739           0.000000          -0.365733           0.633469          -0.000000
hessian_block_lv_atom        2       3          13.487693         -23.361370           0.000000          -7.818117          13.541376          -0.000000           0.619257          -1.072585          -0.000000
hessian_block_lv_atom        2       4         -13.487693          23.361370          -0.000000           7.818114         -13.541371           0.000000          -0.619258           1.072587           0.000000
hessian_block_lv_atom        3       1           0.000000           0.000000          -0.001760          -0.000000          -0.000000           0.000991           0.000000           0.000000          -0.000739
hessian_block_lv_atom        3       2          -0.000000          -0.000000           0.001760           0.000000           0.000000          -0.000991          -0.000000          -0.000000           0.000739
hessian_block_lv_atom        3       3           0.000000           0.000000          -0.001760          -0.000000          -0.000000           0.000995          -0.000000          -0.000000           0.000412
hessian_block_lv_atom        3       4          -0.000000          -0.000000           0.001760           0.000000           0.000000          -0.000995           0.000000           0.000000          -0.000412
