# 
# This is the geometry file that corresponds to the current relaxation step.
# If you do not want this file to be written, set the "write_restart_geometry" flag to .false.
#  aims_uuid : 68D2A6D3-36AE-4D0F-A866-6992A6842C12                                
# 
lattice_vector      5.75033159      0.00000000      0.00000000
lattice_vector      0.00000000      5.90545399     -0.00000000
lattice_vector      0.00000000      0.00000000     99.99804797
atom      -2.23263835      0.70403764      2.70507130 Se
atom      -0.63831171     -2.24889096      2.70506828 Se
atom      -0.01790117     -0.01462688      1.90008965 Pd
atom       2.89667534      2.93853103      1.90037330 Pd
atom       0.63281691      2.24943473      1.21656053 Se
atom       2.24568930     -0.70307422      1.21673317 Se
atom      -0.63278991     -0.70335788     -1.21654219 Se
atom      -2.24566901      2.24970871     -1.21672943 Se
atom       2.85360535     -0.01440570     -1.90027371 Pd
atom       0.01785393      2.93830524     -1.90018419 Pd
atom       2.23266983     -2.24879078     -2.70511422 Se
atom       0.63833108      0.70394538     -2.70505249 Se
# 
# What follows is the current estimated Hessian matrix constructed by the BFGS algorithm.
# This is NOT the true Hessian matrix of the system.
# If you do not want this information here, switch it off using the "hessian_to_restart_geometry" keyword.
# 
trust_radius             0.2384899114
hessian_block                1       1           6.051875          -0.312668           0.707916          -0.312668           7.158906           1.273080           0.707916           1.273080           4.846618
hessian_block                1       2           0.196005          -0.766591          -0.454342           0.803743          -0.572443           0.051504           0.242748           0.302101           0.578206
hessian_block                1       3          -2.346506           0.399402           0.720349           0.416607          -0.687572           0.002789           0.606493          -0.083487          -0.794141
hessian_block                1       4          -0.250284           0.256079           0.091026           0.243252          -2.105994           0.824607          -0.369569           1.065383          -0.754811
hessian_block                1       5          -0.233461           1.089612           0.261290          -0.662794           0.456578          -0.123270          -0.170278          -0.613792          -0.454325
hessian_block                1       6          -1.444105          -0.711892          -1.480767          -0.487973          -2.248807          -2.028821          -1.328164          -2.362012          -2.023421
hessian_block                1       7          -0.041769          -0.165828          -0.000280           0.379033          -0.602822          -0.474046          -0.052939           0.656047           0.508454
hessian_block                1       8           0.220579           0.557554           0.485256          -0.469749          -0.005761          -0.247977           0.313977           0.900377           0.413463
hessian_block                1       9          -0.018702           0.096142          -0.362672           0.024936           0.046319           0.020453           0.133973          -0.208389           0.470893
hessian_block                1      10           0.132384           0.024797           0.036422          -0.626665          -0.136910           0.202918           0.197662          -0.167336           0.470255
hessian_block                1      11          -0.316294          -0.546204          -0.232015           0.738460           0.214378           0.083441          -0.351289          -0.383017          -0.630121
hessian_block                1      12           0.050278           0.079596           0.227816          -0.046181           0.484128           0.415321           0.069470          -0.378956          -0.631070
hessian_block                2       2           6.159618           0.761094          -0.812336           0.761094           8.084863           1.221606          -0.812336           1.221606           4.908196
hessian_block                2       3          -0.367246          -0.169122          -0.032584          -0.632167          -2.440713           0.729004           0.066891           0.927528          -0.735286
hessian_block                2       4          -2.515843          -0.794670          -0.913147          -0.734239          -1.015449          -0.214961          -1.107605          -0.425196          -0.752423
hessian_block                2       5          -1.332871           0.607373           1.622736           0.539798          -2.697378          -1.932239           1.654516          -1.884668          -1.954184
hessian_block                2       6          -0.012648          -0.969811          -0.014525           0.831649           0.642129          -0.105924           0.593089           0.011567          -0.424583
hessian_block                2       7          -0.350726          -0.930499          -0.496959           0.363981           0.042883          -0.262951          -0.430943           0.413192           0.434968
hessian_block                2       8          -0.718723          -0.428100          -0.106615          -0.093596          -0.972583          -0.358231          -0.546848           0.141241           0.385339
hessian_block                2       9           0.406011           0.519889           0.111730           0.028616          -0.523154           0.087279           0.300659           0.149641           0.465445
hessian_block                2      10           0.209064          -0.037634           0.268567          -0.138207          -0.265633          -0.165210           0.197790          -0.046447           0.441354
hessian_block                2      11           0.386522           0.194298          -0.113901           0.114836           1.187495           0.429698           0.349677          -0.222521          -0.601409
hessian_block                2      12          -0.059162           0.443438           0.244287          -0.275174           0.529984           0.269829           0.189450          -0.337446          -0.745621
hessian_block                3       3           7.757289           0.295792          -1.688491           0.295792           8.068405          -1.333943          -1.688491          -1.333943           3.520684
hessian_block                3       4           0.497126           0.656227          -0.286176          -0.521862           0.006603          -0.425549           0.237535          -0.231684           0.360055
hessian_block                3       5          -0.858294          -1.190957           0.451541          -0.603413          -2.288047           1.016319          -0.064286           0.956848          -0.796737
hessian_block                3       6          -2.853918           0.289417           0.822574           0.600311          -0.658471          -0.098048           0.726354           0.168019          -0.703125
hessian_block                3       7           0.255119           0.369914          -0.174605           0.092748          -0.270642           0.302991           0.300283          -0.031481           0.466930
hessian_block                3       8           0.303896           0.152668          -0.022059          -0.136458           0.111008          -0.006138           0.028846          -0.494779           0.499682
hessian_block                3       9          -0.282226          -0.501626           0.332212          -0.405493          -0.159211          -0.252587          -0.256857           0.199030          -0.346416
hessian_block                3      10          -0.464442          -0.254683          -0.270501           0.272046           0.788338          -0.307383          -0.313828           0.146751          -0.402713
hessian_block                3      11           0.197056           0.314799           0.085548          -0.034928          -0.595252           0.203309           0.121749           0.025295           0.436952
hessian_block                3      12           0.162146           0.084008           0.076574           0.210977           0.125553           0.056989           0.220930          -0.135849           0.494115
hessian_block                4       4           8.425027          -0.258961           1.897922          -0.258961           8.041768          -1.595646           1.897922          -1.595646           3.574431
hessian_block                4       5          -3.309968          -0.076274          -0.570314          -0.432526          -0.008700           0.244198          -0.800997           0.295198          -0.823359
hessian_block                4       6          -1.281131           1.257256          -0.160566           0.573410          -2.918432           0.945622          -0.113855           1.033645          -0.850683
hessian_block                4       7           1.208966          -0.097131           0.171101           0.261177          -0.481201           0.506806          -0.086693          -0.323793           0.411420
hessian_block                4       8           1.102033          -0.158607           0.282573          -0.021334           0.304431           0.081454           0.010671          -0.412792           0.698000
hessian_block                4       9          -1.246203           0.170333           0.057713          -0.073947           0.305714          -0.122265           0.057193           0.478312          -0.446423
hessian_block                4      10          -0.428435           0.336550          -0.287512           0.317495           0.335433          -0.505026           0.278349           0.360726          -0.354068
hessian_block                4      11          -0.256357           0.066653          -0.168439          -0.337727          -0.508665           0.188813          -0.395963           0.157067           0.297000
hessian_block                4      12           0.055069          -0.226971           0.017161          -0.145224           0.044492          -0.152459           0.261671          -0.176813           0.640861
hessian_block                5       5           6.978001           0.439436          -0.985846           0.439436           7.211600           0.956753          -0.985846           0.956753           4.935608
hessian_block                5       6           0.969599           0.497598           0.330670          -0.869342          -0.673597           0.286797          -0.629551          -0.134539           0.825470
hessian_block                5       7          -0.867112           0.777018           0.180687          -0.777400          -0.053558           0.076610           0.447740          -0.090546          -0.798146
hessian_block                5       8          -0.378505           0.521982          -0.414357           0.112889           0.679185           0.384366           0.430553           0.035712          -0.880052
hessian_block                5       9           0.823195          -0.442429           0.011546           0.119962           0.150663           0.297143          -0.113809          -0.406428           0.565549
hessian_block                5      10           0.328036          -0.242605           0.253031          -0.058003           0.296309           0.349173          -0.242114          -0.282385           0.514465
hessian_block                5      11          -0.131935          -0.130307           0.292766           0.140159          -0.848180          -0.668232          -0.055083           0.289094           0.518949
hessian_block                5      12           0.013313          -0.261757          -0.287454           0.462544          -0.224875          -0.436196          -0.617143           0.427331           0.346764
hessian_block                6       6           6.812024          -0.363060           0.728752          -0.363060           7.856862           1.280642           0.728752           1.280642           5.075674
hessian_block                6       7          -0.531892           0.045998           0.116495          -0.195979           1.364389           0.135123          -0.145017          -0.624443          -0.755188
hessian_block                6       8          -0.826284          -0.644253          -0.521030           0.534953          -0.117323           0.222510          -0.206196          -0.170771          -1.041170
hessian_block                6       9           0.744760           0.157589          -0.008603           0.335612           0.178471           0.105460          -0.016019          -0.211020           0.547776
hessian_block                6      10           0.389861           0.173290           0.125240          -0.044063          -1.017963           0.479116          -0.109086          -0.010297           0.456943
hessian_block                6      11           0.263231           0.100398           0.492237          -0.428392           0.551012          -0.585965           0.406425           0.134200           0.556683
hessian_block                6      12          -0.229497          -0.118019          -0.180963          -0.201638          -0.958271          -0.353567          -0.156244           0.602062           0.335624
hessian_block                7       7           7.077856           0.352015          -1.164869           0.352015           7.247065          -1.244245          -1.164869          -1.244245           4.980043
hessian_block                7       8           1.179590          -0.034383           0.182645           0.353986           0.051994          -0.315101           0.067036           0.153967           0.670146
hessian_block                7       9          -3.572401           0.411923          -0.570355           0.838718          -0.158326          -0.159438          -0.944508          -0.355373          -0.654441
hessian_block                7      10          -0.684153           0.545358          -0.000274           0.685070          -3.337195          -0.763670           0.407623          -1.019520          -0.757264
hessian_block                7      11          -0.508374          -0.161559          -0.051067          -0.554047           0.313512           0.429769          -0.146698           0.041698          -0.389956
hessian_block                7      12          -1.165103          -1.236912           1.571488          -1.675214          -2.116099           2.053710           1.984977           2.138939          -2.116965
hessian_block                8       8           7.157155           0.113865           1.463766           0.113865           6.505818          -1.136058           1.463766          -1.136058           5.299559
hessian_block                8       9          -1.523249          -0.733995          -0.354598          -0.664529          -2.222755          -0.865552          -0.548125          -0.838281          -0.962570
hessian_block                8      10          -2.691852          -0.648333           0.582822          -0.631724          -0.107791          -0.592983           0.766093           0.167338          -0.745277
hessian_block                8      11          -1.858528           1.235198          -1.951704           1.129176          -1.892732           2.239658          -1.849294           1.761065          -2.204656
hessian_block                8      12           0.033889          -0.247427           0.161675           0.086350          -0.333491           0.201980           0.281147           0.285052          -0.132465
hessian_block                9       9           8.382753          -0.192895           1.968956          -0.192895           7.753490           1.310015           1.968956           1.310015           3.555988
hessian_block                9      10           0.336479           0.257766           0.301016          -0.210088          -0.196609           0.528755          -0.324970           0.256572           0.353514
hessian_block                9      11           0.152253          -0.762239          -0.079805          -0.195895          -2.503007          -1.019468           0.215670          -0.909617          -0.587351
hessian_block                9      12          -2.202669           0.493494          -0.802676           0.921052          -0.671595           0.373206          -1.076631           0.232536          -0.961966
hessian_block               10      10           7.481311          -0.058852          -1.716412          -0.058852           8.697023           1.411256          -1.716412           1.411256           3.521228
hessian_block               10      11          -2.238227          -0.136088           0.708305          -0.578180          -1.238124           0.069586           0.725844           0.501181          -0.737402
hessian_block               10      12          -0.370025           0.629081           0.150589           0.482523          -1.816879          -0.886245          -0.018244          -1.138127          -0.761034
hessian_block               11      11           6.264646          -0.233917           1.185222          -0.233917           7.158122          -1.250512           1.185222          -1.250512           4.920184
hessian_block               11      12           0.046006           0.240454          -0.206260           0.058971           0.161440          -0.143934          -0.167147          -0.120096           0.421127
hessian_block               12      12           5.665756           0.121015          -0.972237           0.121015           6.775613          -1.398634          -0.972237          -1.398634           5.110631
hessian_block_lv             1       1          31.178447          -0.000000          -0.000000          -0.000000          25.000000          -0.000000          -0.000000          -0.000000          25.000000
hessian_block_lv             1       2           0.000000           0.000000           0.000000           1.286408           0.000000          -0.000000          -0.000000           0.000000          -0.000000
hessian_block_lv             1       3           0.000000           0.000000           0.000000          -0.000000           0.000000           0.000000           0.035811           0.000000           0.000000
hessian_block_lv             2       2          25.000000          -0.000000           0.000000          -0.000000          25.949284          -0.000000           0.000000          -0.000000          25.000000
hessian_block_lv             2       3          -0.000000           0.000000           0.000000          -0.000000          -0.000000           0.000000          -0.000000          -0.194803           0.000000
hessian_block_lv             3       3          25.000000           0.000000          -0.000000           0.000000          25.000000          -0.000000          -0.000000          -0.000000          24.906296
hessian_block_lv_atom        1       1           1.300843           0.000000           0.000000           0.786148           0.000000           0.000000           2.939563           0.000000           0.000000
hessian_block_lv_atom        1       2          -1.316634           0.000000           0.000000           0.146983          -0.000000          -0.000000           1.547889           0.000000           0.000000
hessian_block_lv_atom        1       3           1.031709          -0.000000          -0.000000           1.083607          -0.000000           0.000000           0.181939          -0.000000          -0.000000
hessian_block_lv_atom        1       4           4.751674          -0.000000           0.000000          -1.517455           0.000000           0.000000           1.334608          -0.000000          -0.000000
hessian_block_lv_atom        1       5          -2.543880           0.000000           0.000000          -0.075503           0.000000           0.000000          -0.873131           0.000000           0.000000
hessian_block_lv_atom        1       6          -3.392235           0.000000           0.000000          -0.422580          -0.000000          -0.000000          -0.873362           0.000000           0.000000
hessian_block_lv_atom        1       7           3.785721          -0.000000           0.000000           0.709923          -0.000000          -0.000000           0.125998          -0.000000          -0.000000
hessian_block_lv_atom        1       8           4.579297          -0.000000          -0.000000          -1.084613           0.000000           0.000000           1.530740          -0.000000          -0.000000
hessian_block_lv_atom        1       9          -4.788617           0.000000          -0.000000           0.020452           0.000000           0.000000          -1.345990           0.000000           0.000000
hessian_block_lv_atom        1      10          -1.107275           0.000000           0.000000          -0.529586           0.000000           0.000000          -0.267549           0.000000           0.000000
hessian_block_lv_atom        1      11          -2.451341           0.000000           0.000000           0.979568          -0.000000          -0.000000          -3.660744          -0.000000          -0.000000
hessian_block_lv_atom        1      12           0.150739          -0.000000          -0.000000          -0.096943           0.000000           0.000000          -0.639962          -0.000000          -0.000000
hessian_block_lv_atom        2       1           0.000000           1.892387          -0.000000           0.000000          -0.291627           0.000000          -0.000000           0.631659          -0.000000
hessian_block_lv_atom        2       2          -0.000000           0.547433          -0.000000           0.000000           5.350409          -0.000000           0.000000           2.904619          -0.000000
hessian_block_lv_atom        2       3           0.000000          -0.159767           0.000000          -0.000000          -1.116757           0.000000           0.000000           0.225050          -0.000000
hessian_block_lv_atom        2       4           0.000000           0.249264          -0.000000          -0.000000          -4.897088           0.000000           0.000000           0.969736          -0.000000
hessian_block_lv_atom        2       5          -0.000000          -0.688189           0.000000          -0.000000          -4.146663           0.000000          -0.000000          -2.997483           0.000000
hessian_block_lv_atom        2       6          -0.000000          -2.236126           0.000000           0.000000           5.101942          -0.000000          -0.000000          -2.192132           0.000000
hessian_block_lv_atom        2       7           0.000000          -0.619839          -0.000000           0.000000           4.189054          -0.000000           0.000000           1.683610          -0.000000
hessian_block_lv_atom        2       8           0.000000           0.979861          -0.000000          -0.000000          -3.311552           0.000000           0.000000           3.453849          -0.000000
hessian_block_lv_atom        2       9          -0.000000           0.026399           0.000000          -0.000000          -0.113792          -0.000000          -0.000000          -0.553183           0.000000
hessian_block_lv_atom        2      10          -0.000000           0.426669          -0.000000          -0.000000          -5.856265           0.000000          -0.000000          -0.542980           0.000000
hessian_block_lv_atom        2      11          -0.000000          -0.910180           0.000000           0.000000           5.459088          -0.000000          -0.000000          -3.174252           0.000000
hessian_block_lv_atom        2      12           0.000000           0.492088          -0.000000          -0.000000          -0.366751           0.000000           0.000000          -0.408493           0.000000
hessian_block_lv_atom        3       1          -0.000000           0.000000          -0.021458          -0.000000          -0.000000          -0.055269          -0.000000          -0.000000          -0.124765
hessian_block_lv_atom        3       2          -0.000000           0.000000           0.097446          -0.000000           0.000000           0.187437          -0.000000           0.000000           0.050575
hessian_block_lv_atom        3       3           0.000000          -0.000000          -0.106782           0.000000          -0.000000          -0.111128           0.000000          -0.000000          -0.012128
hessian_block_lv_atom        3       4           0.000000          -0.000000          -0.313907          -0.000000           0.000000          -0.074947           0.000000          -0.000000          -0.047822
hessian_block_lv_atom        3       5          -0.000000           0.000000           0.127038           0.000000          -0.000000          -0.160367          -0.000000           0.000000          -0.026394
hessian_block_lv_atom        3       6          -0.000000           0.000000           0.117053           0.000000           0.000000           0.214081          -0.000000           0.000000          -0.003968
hessian_block_lv_atom        3       7           0.000000          -0.000000          -0.226143           0.000000          -0.000000           0.095060           0.000000          -0.000000           0.022400
hessian_block_lv_atom        3       8           0.000000          -0.000000          -0.210747           0.000000          -0.000000          -0.050848           0.000000          -0.000000           0.011444
hessian_block_lv_atom        3       9          -0.000000           0.000000           0.315063           0.000000           0.000000           0.009546          -0.000000           0.000000           0.068971
hessian_block_lv_atom        3      10          -0.000000           0.000000           0.109540          -0.000000          -0.000000          -0.190447          -0.000000           0.000000           0.000657
hessian_block_lv_atom        3      11           0.000000          -0.000000           0.114633           0.000000           0.000000           0.131045          -0.000000           0.000000           0.069018
hessian_block_lv_atom        3      12           0.000000          -0.000000          -0.001737          -0.000000           0.000000           0.005838           0.000000           0.000000          -0.007988
