# 
# This is the geometry file that corresponds to the current relaxation step.
# If you do not want this file to be written, set the "write_restart_geometry" flag to .false.
#  aims_uuid : 674385BE-5B75-4EF8-A59B-B689C9B1650A                                
# 
lattice_vector      2.50555551     -0.00000000     -0.00000000
lattice_vector     -1.25277592      2.16987154      0.00000000
lattice_vector      0.00000000     -0.00000000      6.76670210
atom      -0.00003714      1.44797384      1.69154650 B
atom       1.25281673      0.72189770      5.07515560 B
atom       0.00001018      1.44521886      5.07515384 N
atom       1.25276942      0.72465268      1.69154826 N
# 
# What follows is the current estimated Hessian matrix constructed by the BFGS algorithm.
# This is NOT the true Hessian matrix of the system.
# If you do not want this information here, switch it off using the "hessian_to_restart_geometry" keyword.
# 
trust_radius             0.4660385060
hessian_block                1       1          84.530531          14.230749           0.028874          14.230749         101.348466          -0.003711           0.028874          -0.003711          11.286388
hessian_block                1       2          24.938886         -14.230509          -0.028874         -14.230506           8.121224           0.003711          -0.028874           0.003711           0.390453
hessian_block                1       3         -24.947632          14.235372           0.027804          14.267388          -8.141953          -0.000795           0.035149          -0.031904           0.370310
hessian_block                1       4         -82.521784         -14.235612          -0.027804         -14.267632         -99.327738           0.000795          -0.035148           0.031904         -10.047151
hessian_block                2       2          84.530532          14.230745           0.028874          14.230745         101.348470          -0.003711           0.028874          -0.003711          11.286388
hessian_block                2       3         -82.521786         -14.235608          -0.027805         -14.267627         -99.327742           0.000795          -0.035149           0.031904         -10.047152
hessian_block                2       4         -24.947632          14.235369           0.027805          14.267392          -8.141953          -0.000795           0.035148          -0.031904           0.370310
hessian_block                3       3          84.513055          14.272561           0.036276          14.272561         101.306794          -0.034206           0.036276          -0.034206          11.362080
hessian_block                3       4          24.956364         -14.272322          -0.036276         -14.272325           8.162900           0.034206          -0.036276           0.034206           0.314762
hessian_block                4       4          84.513053          14.272565           0.036276          14.272565         101.306790          -0.034205           0.036276          -0.034205          11.362080
hessian_block_lv             1       1          59.191918           0.000000          -0.000000           0.000000          25.000000          -0.000000          -0.000000          -0.000000          25.000000
hessian_block_lv             1       2         -17.124708          -0.000000           0.000000          29.660864           0.000000          -0.000000          -0.000000           0.000000          -0.000000
hessian_block_lv             1       3          -0.000000           0.000000          -0.000000           0.000000          -0.000000           0.000000           0.098301          -0.000000          -0.000000
hessian_block_lv             2       2          33.578004         -14.857539           0.000000         -14.857539          50.734012          -0.000000           0.000000          -0.000000          25.000000
hessian_block_lv             2       3           0.000000          -0.000000          -0.000000          -0.000000           0.000000           0.000000          -0.051783           0.089692           0.000000
hessian_block_lv             3       3          25.000000           0.000000           0.000000           0.000000          25.000000           0.000000           0.000000           0.000000           0.269102
hessian_block_lv_atom        1       1         -19.780161          -0.000000           0.000000          11.804905           0.000000          -0.000000          -0.032212          -0.000000          -0.000000
hessian_block_lv_atom        1       2          19.780163           0.000000          -0.000000         -11.804911          -0.000000           0.000000           0.032213           0.000000           0.000000
hessian_block_lv_atom        1       3         -19.768862          -0.000000           0.000000          11.733199           0.000000          -0.000000          -0.058971           0.000000           0.000000
hessian_block_lv_atom        1       4          19.768860           0.000000          -0.000000         -11.733193          -0.000000           0.000000           0.058971          -0.000000          -0.000000
hessian_block_lv_atom        2       1           9.922788         -17.186773           0.000000          -5.922881          10.258730          -0.000000           0.014713          -0.025483           0.000000
hessian_block_lv_atom        2       2          -9.922789          17.186775          -0.000000           5.922884         -10.258736           0.000000          -0.014713           0.025483          -0.000000
hessian_block_lv_atom        2       3           9.917118         -17.176952           0.000000          -5.886811          10.196255          -0.000000           0.028343          -0.049091          -0.000000
hessian_block_lv_atom        2       4          -9.917117          17.176950          -0.000000           5.886808         -10.196250           0.000000          -0.028343           0.049091           0.000000
hessian_block_lv_atom        3       1           0.000000          -0.000000          -0.057753          -0.000000           0.000000           0.025995           0.000000          -0.000000          -0.122908
hessian_block_lv_atom        3       2          -0.000000           0.000000           0.057753           0.000000          -0.000000          -0.025995          -0.000000           0.000000           0.122908
hessian_block_lv_atom        3       3           0.000000          -0.000000          -0.056522          -0.000000           0.000000           0.017202          -0.000000           0.000000           0.164125
hessian_block_lv_atom        3       4          -0.000000           0.000000           0.056522           0.000000          -0.000000          -0.017202           0.000000          -0.000000          -0.164125
