# 
# This is the geometry file that corresponds to the current relaxation step.
# If you do not want this file to be written, set the "write_restart_geometry" flag to .false.
#  aims_uuid : 359155A3-BBFB-4A76-A171-F2B6B0C5272E                                
# 
lattice_vector      2.46063758     -0.00000000     -0.00000000
lattice_vector     -1.23038491      2.13108918      0.00000000
lattice_vector     -0.00000000     -0.00000000      6.82681726
atom      -0.00001511     -0.00038172      5.12330108 C
atom       0.00001511      0.00038172      1.70351617 C
atom       1.23041736      0.70987532      5.12326272 C
atom      -0.00016469      1.42121385      1.70355454 C
# 
# What follows is the current estimated Hessian matrix constructed by the BFGS algorithm.
# This is NOT the true Hessian matrix of the system.
# If you do not want this information here, switch it off using the "hessian_to_restart_geometry" keyword.
# 
trust_radius             0.0289691851
hessian_block                1       1         104.880689          12.101110          -0.966087          12.101110         118.399094           0.548734          -0.966087           0.548734          15.366758
hessian_block                1       2          18.657975         -12.101110           0.966087         -12.101109           5.139569          -0.548734           0.965743          -0.548539           0.046373
hessian_block                1       3        -102.878558         -12.105197           0.965928         -12.106293        -116.401838          -0.549507          -0.736020           0.416757         -13.457930
hessian_block                1       4         -18.660107          12.105197          -0.965928          12.106293          -5.136824           0.549507           0.736364          -0.416951           0.044798
hessian_block                2       2         104.880688          12.101109          -0.965743          12.101109         118.399097           0.548539          -0.965743           0.548539          15.366772
hessian_block                2       3         -18.660107          12.105197          -0.965584          12.106293          -5.136824           0.549313           0.736020          -0.416757           0.044780
hessian_block                2       4        -102.878557         -12.105197           0.965584         -12.106293        -116.401842          -0.549313          -0.736364           0.416951         -13.457925
hessian_block                3       3         104.878262          12.110382           0.735899          12.110382         118.406358          -0.417482           0.735899          -0.417482          15.377650
hessian_block                3       4          18.660402         -12.110382          -0.735899         -12.110381           5.132304           0.417482          -0.736242           0.417676           0.035499
hessian_block                4       4         104.878261          12.110381           0.736242          12.110381         118.406362          -0.417676           0.736242          -0.417676          15.377628
hessian_block_lv             1       1          71.611393          -0.000000           0.000000          -0.000000          25.000000           0.000000           0.000000           0.000000          25.000000
hessian_block_lv             1       2         -16.901936           0.000000          -0.000000          29.275011          -0.000000           0.000000           0.000000          -0.000000          -0.000000
hessian_block_lv             1       3           0.000000          -0.000000          -0.000000           0.000000           0.000000          -0.000000          -0.160585           0.000000           0.000000
hessian_block_lv             2       2          36.189021         -19.379952          -0.000000         -19.379952          58.567062           0.000000          -0.000000           0.000000          25.000000
hessian_block_lv             2       3           0.000000          -0.000000           0.000000          -0.000000           0.000000           0.000000           0.424332          -0.734965          -0.000000
hessian_block_lv             3       3          25.000000          -0.000000           0.000000          -0.000000          25.000000           0.000000           0.000000           0.000000           0.649086
hessian_block_lv_atom        1       1         -21.112171           0.000000          -0.000000           7.980634          -0.000000           0.000000          -0.309664           0.000000           0.000000
hessian_block_lv_atom        1       2          21.112169          -0.000000           0.000000          -7.980630           0.000000          -0.000000           0.310514          -0.000000          -0.000000
hessian_block_lv_atom        1       3          21.106217          -0.000000           0.000000          -7.958495           0.000000          -0.000000          -0.416709           0.000000           0.000000
hessian_block_lv_atom        1       4         -21.106215           0.000000          -0.000000           7.958491          -0.000000           0.000000           0.415858          -0.000000          -0.000000
hessian_block_lv_atom        2       1           9.706824         -16.812712           0.000000          -7.456401          12.914866          -0.000000           0.213287          -0.369424           0.000000
hessian_block_lv_atom        2       2          -9.706824          16.812712          -0.000000           7.456401         -12.914865           0.000000          -0.213707           0.370151          -0.000000
hessian_block_lv_atom        2       3          -9.698654          16.798561          -0.000000           7.455163         -12.912721           0.000000           0.258171          -0.447165           0.000000
hessian_block_lv_atom        2       4           9.698654         -16.798561           0.000000          -7.455163          12.912721          -0.000000          -0.257751           0.446438          -0.000000
hessian_block_lv_atom        3       1          -0.000000          -0.000000          -0.678457           0.000000           0.000000           0.190430          -0.000000          -0.000000           0.443652
hessian_block_lv_atom        3       2           0.000000           0.000000           0.678458          -0.000000          -0.000000          -0.190430           0.000000           0.000000          -0.443664
hessian_block_lv_atom        3       3           0.000000           0.000000           0.682881          -0.000000          -0.000000          -0.180886          -0.000000          -0.000000           0.456313
hessian_block_lv_atom        3       4          -0.000000          -0.000000          -0.682881           0.000000           0.000000           0.180886           0.000000           0.000000          -0.456301
