# 
# This is the geometry file that corresponds to the current relaxation step.
# If you do not want this file to be written, set the "write_restart_geometry" flag to .false.
#  aims_uuid : D0B0770D-5DA6-4B2B-ACCB-5E8FC2D1E635                                
# 
lattice_vector      2.46189840      0.00000000     -0.00000000
lattice_vector     -1.23096403      2.13209225      0.00000000
lattice_vector      0.00000000      0.00000000    100.00000729
atom       0.00055857     -0.00032952      5.07423769 C
atom      -0.00055857      0.00032952      1.63576231 C
atom       1.23134142      0.71046431      5.07466998 C
atom      -0.00040705      1.42162793      1.63533002 C
# 
# What follows is the current estimated Hessian matrix constructed by the BFGS algorithm.
# This is NOT the true Hessian matrix of the system.
# If you do not want this information here, switch it off using the "hessian_to_restart_geometry" keyword.
# 
trust_radius             0.2000000030
hessian_block                1       1         125.089260          -0.879207          -0.210598          -0.879207         124.038345           0.120177          -0.210598           0.120177          15.062990
hessian_block                1       2          -1.550986           0.879230           0.210604           0.879208          -0.500033          -0.120177           0.210598          -0.120177           0.345720
hessian_block                1       3        -123.088891           0.879239           0.210991           0.879188        -122.037876          -0.120344          -0.300789           0.169787         -13.949677
hessian_block                1       4           1.550617          -0.879261          -0.210997          -0.879188           0.499564           0.120344           0.300790          -0.169787           0.540967
hessian_block                2       2         125.089337          -0.879230          -0.210604          -0.879230         124.038346           0.120177          -0.210604           0.120177          15.062990
hessian_block                2       3           1.550617          -0.879239          -0.210990          -0.879210           0.499564           0.120344           0.300790          -0.169786           0.540967
hessian_block                2       4        -123.088968           0.879262           0.210997           0.879211        -122.037877          -0.120344          -0.300790           0.169787         -13.949677
hessian_block                3       3         125.089435          -0.879219           0.301243          -0.879219         124.038321          -0.169983           0.301243          -0.169983          15.134644
hessian_block                3       4          -1.551161           0.879242          -0.301243           0.879220          -0.500009           0.169983          -0.301243           0.169984           0.274066
hessian_block                4       4         125.089512          -0.879242           0.301244          -0.879242         124.038322          -0.169983           0.301244          -0.169983          15.134644
hessian_block_lv             1       1          49.601217          -0.000000           0.000000          -0.000000          25.000000           0.000000           0.000000           0.000000          25.000000
hessian_block_lv             1       2         -12.251774           0.000000          -0.000000          21.220696          -0.000000           0.000000           0.000000          -0.000000           0.000000
hessian_block_lv             1       3           0.000000          -0.000000           0.000000           0.000000          -0.000000           0.000000          -0.003048          -0.000000           0.000000
hessian_block_lv             2       2          31.104249         -10.572869          -0.000000         -10.572869          43.312746           0.000000          -0.000000           0.000000          25.000000
hessian_block_lv             2       3          -0.000000           0.000000          -0.000000          -0.000000           0.000000          -0.000000           0.001479          -0.002562          -0.000000
hessian_block_lv             3       3          25.000000          -0.000000          -0.000000          -0.000000          25.000000          -0.000000          -0.000000          -0.000000          24.999992
hessian_block_lv_atom        1       1         -10.233739           0.000000          -0.000000           5.864007          -0.000000           0.000000           0.322064          -0.000000           0.000000
hessian_block_lv_atom        1       2          10.233761          -0.000000           0.000000          -5.864006           0.000000          -0.000000          -0.322066           0.000000          -0.000000
hessian_block_lv_atom        1       3          10.230528          -0.000000           0.000000          -5.861987           0.000000          -0.000000          -0.626799          -0.000000           0.000000
hessian_block_lv_atom        1       4         -10.230550           0.000000          -0.000000           5.861987          -0.000000           0.000000           0.626800           0.000000          -0.000000
hessian_block_lv_atom        2       1           5.133666          -8.891770          -0.000000          -2.943890           5.098967           0.000000          -0.158040           0.273734          -0.000000
hessian_block_lv_atom        2       2          -5.133677           8.891789           0.000000           2.943890          -5.098966          -0.000000           0.158041          -0.273735           0.000000
hessian_block_lv_atom        2       3          -5.132018           8.888916           0.000000           2.942856          -5.097176          -0.000000           0.326955          -0.566303          -0.000000
hessian_block_lv_atom        2       4           5.132029          -8.888936          -0.000000          -2.942856           5.097176           0.000000          -0.326956           0.566304           0.000000
hessian_block_lv_atom        3       1          -0.000000           0.000000           0.002646           0.000000          -0.000000          -0.001507          -0.000000          -0.000000          -0.001897
hessian_block_lv_atom        3       2           0.000000          -0.000000          -0.002646          -0.000000           0.000000           0.001507           0.000000           0.000000           0.001897
hessian_block_lv_atom        3       3           0.000000          -0.000000          -0.002643          -0.000000           0.000000           0.001505          -0.000000          -0.000000          -0.001242
hessian_block_lv_atom        3       4          -0.000000           0.000000           0.002643           0.000000          -0.000000          -0.001505           0.000000           0.000000           0.001242
