# 
# This is the geometry file that corresponds to the current relaxation step.
# If you do not want this file to be written, set the "write_restart_geometry" flag to .false.
#  aims_uuid : 8439A89B-6A6F-4996-ACCD-A4F5EC38E221                                
# 
lattice_vector      3.73621314      0.00000000     -0.00000000
lattice_vector     -1.86811164      3.23566426      0.00000000
lattice_vector     -0.00000000     -0.00000000     99.99947806
atom       1.86730445     -1.07799177      3.94304103 Se
atom      -0.00127258      0.00088717      2.62069265 Pt
atom      -1.86872475      1.07904029      1.32090541 Se
atom       1.86872484     -1.07904022     -1.32090342 Se
atom       0.00127268     -0.00088729     -2.62069398 Pt
atom      -1.86730464      1.07799182     -3.94304169 Se
# 
# What follows is the current estimated Hessian matrix constructed by the BFGS algorithm.
# This is NOT the true Hessian matrix of the system.
# If you do not want this information here, switch it off using the "hessian_to_restart_geometry" keyword.
# 
trust_radius             0.1924748189
hessian_block                1       1           5.423426          -0.363483           0.086104          -0.363483           5.004624          -0.049918           0.086104          -0.049918           7.600979
hessian_block                1       2          -3.217764          -0.003054          -0.088696          -0.011773          -3.218162           0.045047          -0.240669           0.145144          -4.617511
hessian_block                1       3          -0.251059           0.392552           0.010751           0.392528           0.203594          -0.004004           0.278135          -0.164481          -0.697256
hessian_block                1       4           0.681235          -0.392709          -0.010823          -0.392558           0.226327           0.004084          -0.278907           0.164930           0.675202
hessian_block                1       5          -0.006832           0.003134           0.088754           0.011832          -0.006328          -0.045203           0.241467          -0.145609           2.669203
hessian_block                1       6          -0.629005           0.363559          -0.086090           0.363454          -0.210054           0.049994          -0.086129           0.049934          -3.630617
hessian_block                2       2           8.626564          -0.013533           0.253599          -0.013533           8.609514          -0.133605           0.253599          -0.133605          10.573106
hessian_block                2       3          -3.408539           0.025333           0.002430           0.018190          -3.392462          -0.001692          -0.219075           0.121260          -4.485620
hessian_block                2       4           0.030980          -0.025344          -0.002445          -0.018204           0.014896           0.001508           0.219308          -0.121379           2.476452
hessian_block                2       5          -0.024543           0.013540          -0.253642           0.013560          -0.007499           0.133969          -0.253892           0.133757          -4.613689
hessian_block                2       6          -0.006697           0.011777           0.240727           0.003041          -0.006288          -0.145324           0.088756          -0.045080           2.667262
hessian_block                3       3           5.719477          -0.437948          -0.072997          -0.437948           5.213501           0.043161          -0.072997           0.043161           7.279202
hessian_block                3       4          -0.772114           0.438124           0.073146           0.437994          -0.265858          -0.043041           0.073575          -0.043497          -3.248359
hessian_block                3       5           0.031124          -0.018281           0.219050          -0.025422           0.014940          -0.121495          -0.002973           0.002008           2.474967
hessian_block                3       6           0.681111          -0.392613          -0.278260          -0.392508           0.226285           0.164596          -0.010785           0.004024           0.677066
hessian_block                4       4           5.720087          -0.438169          -0.073724          -0.438169           5.213553           0.043377          -0.073724           0.043377           7.284043
hessian_block                4       5          -3.408711           0.018295          -0.219282           0.025433          -3.392521           0.121615           0.002988          -0.001824          -4.493136
hessian_block                4       6          -0.251477           0.392642           0.279032           0.392665           0.203603          -0.165046           0.010857          -0.004104          -0.694204
hessian_block                5       5           8.626583          -0.013567           0.253935          -0.013567           8.609544          -0.134121           0.253935          -0.134121          10.584000
hessian_block                5       6          -3.217621          -0.011836          -0.241524          -0.003121          -3.218136           0.145789          -0.088814           0.045236          -4.621346
hessian_block                6       6           5.423690          -0.363530           0.086115          -0.363530           5.004590          -0.050010           0.086115          -0.050010           7.601839
hessian_block_lv             1       1          24.578857          -0.000000          -0.000000          -0.000000          25.000000           0.000000          -0.000000           0.000000          25.000000
hessian_block_lv             1       2           0.211549           0.000000           0.000000          -0.366413          -0.000000          -0.000000          -0.000000           0.000000           0.000000
hessian_block_lv             1       3           0.000000           0.000000           0.000000          -0.000000          -0.000000          -0.000000          -0.066790          -0.000000          -0.000000
hessian_block_lv             2       2          24.893740           0.184048           0.000000           0.184048          24.681220          -0.000000           0.000000          -0.000000          25.000000
hessian_block_lv             2       3          -0.000000           0.000000          -0.000000           0.000000          -0.000000           0.000000           0.033391          -0.057835           0.000000
hessian_block_lv             3       3          25.000000          -0.000000           0.000000          -0.000000          25.000000          -0.000000           0.000000          -0.000000          24.994575
hessian_block_lv_atom        1       1          -1.885964          -0.000000           0.000000           1.093655           0.000000          -0.000000           3.130376           0.000000           0.000000
hessian_block_lv_atom        1       2          -0.086382          -0.000000          -0.000000           0.064371           0.000000           0.000000           0.015685          -0.000000          -0.000000
hessian_block_lv_atom        1       3           2.097595           0.000000          -0.000000          -1.206984          -0.000000           0.000000          -3.814151           0.000000           0.000000
hessian_block_lv_atom        1       4          -2.098200          -0.000000           0.000000           1.207014           0.000000          -0.000000           3.815804          -0.000000          -0.000000
hessian_block_lv_atom        1       5           0.086703           0.000000           0.000000          -0.064418          -0.000000          -0.000000          -0.017510           0.000000           0.000000
hessian_block_lv_atom        1       6           1.886249           0.000000          -0.000000          -1.093638          -0.000000           0.000000          -3.130205          -0.000000          -0.000000
hessian_block_lv_atom        2       1           0.942748          -1.632887          -0.000000          -0.546698           0.946908           0.000000          -1.565009           2.710675          -0.000000
hessian_block_lv_atom        2       2           0.042934          -0.074363           0.000000          -0.032035           0.055487          -0.000000          -0.010503           0.018192           0.000000
hessian_block_lv_atom        2       3          -1.048275           1.815665          -0.000000           0.603191          -1.044757           0.000000           1.909840          -3.307940          -0.000000
hessian_block_lv_atom        2       4           1.048577          -1.816189           0.000000          -0.603206           1.044783          -0.000000          -1.910669           3.309376           0.000000
hessian_block_lv_atom        2       5          -0.043094           0.074641          -0.000000           0.032058          -0.055527           0.000000           0.011418          -0.019777          -0.000000
hessian_block_lv_atom        2       6          -0.942890           1.633133           0.000000           0.546689          -0.946894          -0.000000           1.564923          -2.710526           0.000000
hessian_block_lv_atom        3       1          -0.000000           0.000000           0.041720           0.000000          -0.000000          -0.023697          -0.000000          -0.000000           0.015618
hessian_block_lv_atom        3       2           0.000000          -0.000000          -0.006355          -0.000000           0.000000           0.003910           0.000000          -0.000000          -0.076225
hessian_block_lv_atom        3       3           0.000000          -0.000000          -0.034538          -0.000000           0.000000           0.020458          -0.000000           0.000000           0.033883
hessian_block_lv_atom        3       4          -0.000000           0.000000           0.034554           0.000000          -0.000000          -0.020456           0.000000          -0.000000          -0.033951
hessian_block_lv_atom        3       5          -0.000000           0.000000           0.006351           0.000000          -0.000000          -0.003914          -0.000000           0.000000           0.076305
hessian_block_lv_atom        3       6           0.000000          -0.000000          -0.041731          -0.000000           0.000000           0.023698           0.000000           0.000000          -0.015630
