# 
# This is the geometry file that corresponds to the current relaxation step.
# If you do not want this file to be written, set the "write_restart_geometry" flag to .false.
#  aims_uuid : 8A2C72AF-F6CC-4520-A687-CFE565FE78DE                                
# 
lattice_vector      3.28058121     -0.00000000      0.00000000
lattice_vector     -1.64026628      2.84102454     -0.00000000
lattice_vector     -0.00000000     -0.00000000     12.90915291
atom      -0.00106607      1.89462464      3.22727768 Mo
atom       1.64137979      0.94639929      9.68176536 Mo
atom       0.00108827      1.89337996     11.36276970 Se
atom       1.63923110      0.94764409      4.90837496 Se
atom       1.63922873      0.94764391      1.54644584 Se
atom       0.00108299      1.89338172      8.00082518 Se
# 
# What follows is the current estimated Hessian matrix constructed by the BFGS algorithm.
# This is NOT the true Hessian matrix of the system.
# If you do not want this information here, switch it off using the "hessian_to_restart_geometry" keyword.
# 
trust_radius             0.0184525249
hessian_block                1       1          10.252645          -2.865777          -0.036935          -2.865777           6.954846           0.023235          -0.036935           0.023235           7.028883
hessian_block                1       2          -4.956388           2.866329           0.037047           2.865595          -1.657555          -0.023184          -0.008313           0.005255           0.002359
hessian_block                1       3           2.447330          -1.415188          -0.018083          -1.414729           0.818239           0.011252           0.099340          -0.063639          -0.039208
hessian_block                1       4          -4.094903           1.414542           0.017776           1.414627          -2.466763          -0.011228           0.102666          -0.066178          -2.552064
hessian_block                1       5          -4.095217           1.414754           0.017930           1.414645          -2.466770          -0.011211          -0.076058           0.048921          -2.476886
hessian_block                1       6           2.446534          -1.414660          -0.017736          -1.414361           0.818003           0.011136          -0.080700           0.052406           0.036916
hessian_block                2       2          10.254485          -2.866148           0.008340          -2.866148           6.954617          -0.005243           0.008340          -0.005243           7.019820
hessian_block                2       3          -4.096365           1.415101          -0.003738           1.414997          -2.466772           0.002355          -0.100121           0.063470          -2.517394
hessian_block                2       4           2.446759          -1.414457           0.003668          -1.414894           0.818121          -0.002349          -0.103482           0.065992          -0.008438
hessian_block                2       5           2.447075          -1.414668           0.003703          -1.414912           0.818128          -0.002346           0.076765          -0.048786           0.006193
hessian_block                2       6          -4.095566           1.414576          -0.003659           1.414627          -2.466538           0.002328           0.081452          -0.052249          -2.502541
hessian_block                3       3           4.852143          -0.697500           0.033784          -0.697500           4.048742          -0.022025           0.033784          -0.022025           7.437420
hessian_block                3       4          -1.206188           0.697204          -0.032857           0.697453          -0.403225           0.021978           0.034763          -0.022858           2.912493
hessian_block                3       5          -1.206971           0.697296          -0.033126           0.697465          -0.403877           0.021921          -0.022589           0.015018          -2.881752
hessian_block                3       6           1.210051          -0.697268           0.032980          -0.697331           0.406894          -0.021704          -0.024137           0.016259          -2.911560
hessian_block                4       4           4.851217          -0.697158          -0.033742          -0.697158           4.048684           0.022804          -0.033742           0.022804           7.457037
hessian_block                4       5           1.209609          -0.697250          -0.034059          -0.697170           0.406949           0.022743           0.021866          -0.014986          -2.906589
hessian_block                4       6          -1.206494           0.697222           0.033854           0.697039          -0.403765          -0.022503           0.023290          -0.016218          -2.902440
hessian_block                5       5           4.851483          -0.697261           0.022033          -0.697261           4.048694          -0.014941           0.022033          -0.014941           7.391910
hessian_block                5       6          -1.205978           0.697234          -0.022016           0.697129          -0.403124           0.014774           0.023519          -0.016167           2.867123
hessian_block                6       6           4.851452          -0.697103          -0.023424          -0.697103           4.048529           0.015969          -0.023424           0.015969           7.412501
hessian_block_lv             1       1          33.874902           0.000000           0.000000           0.000000          25.000000           0.000000           0.000000           0.000000          25.000000
hessian_block_lv             1       2          -4.420973          -0.000000          -0.000000           7.657349           0.000000           0.000000          -0.000000           0.000000           0.000000
hessian_block_lv             1       3           0.000000          -0.000000           0.000000           0.000000          -0.000000           0.000000          -0.834681          -0.000000           0.000000
hessian_block_lv             2       2          27.202281          -3.814462           0.000000          -3.814462          31.606842          -0.000000           0.000000          -0.000000          25.000000
hessian_block_lv             2       3          -0.000000           0.000000          -0.000000          -0.000000           0.000000           0.000000           0.417903          -0.723828          -0.000000
hessian_block_lv             3       3          25.000000          -0.000000          -0.000000          -0.000000          25.000000           0.000000          -0.000000           0.000000          24.934400
hessian_block_lv_atom        1       1          -8.762987          -0.000000           0.000000           5.023853           0.000000          -0.000000          -0.196371          -0.000000          -0.000000
hessian_block_lv_atom        1       2           8.761722           0.000000          -0.000000          -5.024712          -0.000000           0.000000          -0.020911          -0.000000          -0.000000
hessian_block_lv_atom        1       3          -4.510681          -0.000000           0.000000           2.587528           0.000000          -0.000000           2.699128           0.000000           0.000000
hessian_block_lv_atom        1       4           4.514720           0.000000          -0.000000          -2.587673          -0.000000           0.000000           2.728137           0.000000           0.000000
hessian_block_lv_atom        1       5           4.512632           0.000000          -0.000000          -2.587999          -0.000000           0.000000          -2.581646          -0.000000          -0.000000
hessian_block_lv_atom        1       6          -4.515406          -0.000000           0.000000           2.589003           0.000000          -0.000000          -2.628337          -0.000000          -0.000000
hessian_block_lv_atom        2       1           4.382804          -7.591239          -0.000000          -2.512801           4.352299           0.000000           0.097613          -0.169070           0.000000
hessian_block_lv_atom        2       2          -4.382178           7.590154           0.000000           2.513227          -4.353038          -0.000000           0.010307          -0.017852           0.000000
hessian_block_lv_atom        2       3           2.256028          -3.907555          -0.000000          -1.294211           2.241640           0.000000          -1.350325           2.338831          -0.000000
hessian_block_lv_atom        2       4          -2.258028           3.911020           0.000000           1.294282          -2.241763          -0.000000          -1.364620           2.363592          -0.000000
hessian_block_lv_atom        2       5          -2.256994           3.909228           0.000000           1.294444          -2.242043          -0.000000           1.291974          -2.237765           0.000000
hessian_block_lv_atom        2       6           2.258368          -3.911609          -0.000000          -1.294942           2.242905           0.000000           1.315052          -2.277736           0.000000
hessian_block_lv_atom        3       1          -0.000000          -0.000000          -0.161746           0.000000           0.000000           0.093538          -0.000000           0.000000          -0.001264
hessian_block_lv_atom        3       2           0.000000           0.000000           0.161788          -0.000000          -0.000000          -0.093533           0.000000           0.000000           0.001647
hessian_block_lv_atom        3       3          -0.000000          -0.000000          -0.091902           0.000000           0.000000           0.053012           0.000000          -0.000000          -0.150375
hessian_block_lv_atom        3       4           0.000000           0.000000           0.091784          -0.000000          -0.000000          -0.052994           0.000000          -0.000000          -0.153333
hessian_block_lv_atom        3       5           0.000000           0.000000           0.091842          -0.000000          -0.000000          -0.052988          -0.000000           0.000000           0.150098
hessian_block_lv_atom        3       6          -0.000000          -0.000000          -0.091766           0.000000           0.000000           0.052966          -0.000000           0.000000           0.153226
