# 
# This is the geometry file that corresponds to the current relaxation step.
# If you do not want this file to be written, set the "write_restart_geometry" flag to .false.
#  aims_uuid : 53C6D234-4F2B-45DE-AB42-4C8AB38B860F                                
# 
lattice_vector      3.70013613     -0.00000000     -0.00000000
lattice_vector     -1.85009997      3.20446714     -0.00000000
lattice_vector     -0.00000000      0.00000000      6.14601397
atom       0.00006261     -0.00003027      0.00013625 Hf
atom       1.84939609      1.06953586      4.54532526 Se
atom       0.00057747      2.13496154      1.60055246 Se
# 
# What follows is the current estimated Hessian matrix constructed by the BFGS algorithm.
# This is NOT the true Hessian matrix of the system.
# If you do not want this information here, switch it off using the "hessian_to_restart_geometry" keyword.
# 
trust_radius             0.0865942437
hessian_block                1       1           3.587244           0.005995          -0.023591           0.005995           3.593384           0.015211          -0.023591           0.015211          14.575999
hessian_block                1       2          -0.777289          -0.012823           0.213893           0.023566          -0.812710          -0.080983           0.050630          -0.030553          -5.538768
hessian_block                1       3          -0.809955           0.006828          -0.190302          -0.029561          -0.780674           0.065772          -0.027039           0.015342          -7.037231
hessian_block                2       2           4.280060          -0.971579          -1.348326          -0.971579           3.370371           0.719756          -1.348326           0.719756           9.935821
hessian_block                2       3          -1.502771           0.948013           1.297696           0.984402          -0.557661          -0.689202           1.134433          -0.638773          -2.397053
hessian_block                3       3           4.312727          -0.954840          -1.107394          -0.954840           3.338335           0.623430          -1.107394           0.623430          11.434284
hessian_block_lv             1       1          17.599677          -0.000000           0.000000          -0.000000          25.000000          -0.000000           0.000000          -0.000000          25.000000
hessian_block_lv             1       2           3.641508           0.000000          -0.000000          -6.307277          -0.000000           0.000000           0.000000          -0.000000          -0.000000
hessian_block_lv             1       3          -0.000000           0.000000           0.000000           0.000000          -0.000000           0.000000          -0.035470          -0.000000          -0.000000
hessian_block_lv             2       2          23.189853           3.135266          -0.000000           3.135266          19.569559           0.000000          -0.000000           0.000000          25.000000
hessian_block_lv             2       3           0.000000          -0.000000           0.000000          -0.000000           0.000000           0.000000           0.020175          -0.034944          -0.000000
hessian_block_lv             3       3          25.000000           0.000000          -0.000000           0.000000          25.000000           0.000000          -0.000000           0.000000           0.491686
hessian_block_lv_atom        1       1           0.024896          -0.000000          -0.000000          -0.013361           0.000000           0.000000           0.018303          -0.000000          -0.000000
hessian_block_lv_atom        1       2           1.774519          -0.000000           0.000000          -0.863769           0.000000          -0.000000          -3.114167           0.000000          -0.000000
hessian_block_lv_atom        1       3          -1.799415           0.000000          -0.000000           0.877130          -0.000000           0.000000           3.095865          -0.000000           0.000000
hessian_block_lv_atom        2       1           0.007343          -0.012719           0.000000          -0.005176           0.008965          -0.000000           0.027548          -0.047714           0.000000
hessian_block_lv_atom        2       2          -0.926316           1.604427          -0.000000           0.421568          -0.730177           0.000000           1.478895          -2.561520           0.000000
hessian_block_lv_atom        2       3           0.918973          -1.591707           0.000000          -0.416392           0.721212          -0.000000          -1.506442           2.609235          -0.000000
hessian_block_lv_atom        3       1           0.000000          -0.000000          -0.000660          -0.000000           0.000000           0.000238           0.000000          -0.000000           0.054471
hessian_block_lv_atom        3       2           0.000000           0.000000          -0.039501          -0.000000           0.000000           0.044090          -0.000000          -0.000000           0.328548
hessian_block_lv_atom        3       3          -0.000000          -0.000000           0.040161           0.000000          -0.000000          -0.044328           0.000000           0.000000          -0.383019
