# 
# This is the geometry file that corresponds to the current relaxation step.
# If you do not want this file to be written, set the "write_restart_geometry" flag to .false.
#  aims_uuid : 1E80339A-2A37-4416-A81F-5ED43CC5AF58                                
# 
lattice_vector      5.81266085      0.00000000      0.00000000
lattice_vector      0.00000000      5.93444294     -0.00000000
lattice_vector     -0.00000000     -0.00000000      7.67775828
atom       2.89829470     -0.00568107      0.00011283 Pd
atom      -0.00833296     -0.00505943      3.84062224 Pd
atom      -0.00799606      2.96163433      0.00015595 Pd
atom       2.89844619      2.96249815      3.83936756 Pd
atom       3.54922089      0.69991091      3.11007903 Se
atom       5.15416258      5.22449806      6.94824636 Se
atom       0.64283830      2.25777615      4.56933321 Se
atom       2.24786516      3.66642418      0.73027035 Se
atom       2.24799354      5.22484128      4.56938497 Se
atom       0.64283839      0.69927154      0.73042149 Se
atom       5.15417472      3.66696418      3.11010631 Se
atom       3.54900696      2.25722904      6.94816451 Se
# 
# What follows is the current estimated Hessian matrix constructed by the BFGS algorithm.
# This is NOT the true Hessian matrix of the system.
# If you do not want this information here, switch it off using the "hessian_to_restart_geometry" keyword.
# 
trust_radius             0.0055272853
hessian_block                1       1          10.195815           0.030440          -2.725175           0.030440           9.026744          -1.530556          -2.725175          -1.530556           3.499489
hessian_block                1       2           1.562820          -0.459409          -0.706219           0.940541           0.206625          -0.679257           0.393214          -0.304332          -0.105091
hessian_block                1       3           0.628796           1.670069          -0.608004          -1.398370           0.921469          -0.130829           0.015691          -0.319850           0.171187
hessian_block                1       4           0.720782          -0.455562          -0.276941          -0.298366          -0.470497          -0.048653          -0.241742           1.069263           0.308322
hessian_block                1       5          -1.050399           0.035181           0.665870          -0.483418          -0.388175           0.209107           0.451676           0.381612          -0.525965
hessian_block                1       6          -5.182637           0.672297           1.458852           0.626287          -0.685732           0.032661           0.710111           0.527201          -0.657589
hessian_block                1       7          -0.150972           0.422755          -0.117067          -0.505235           0.293523           0.060495          -0.189645          -0.507530           0.073755
hessian_block                1       8           0.059081          -1.054854           0.196496          -0.012479          -2.827195           1.023284          -0.344017           1.174161          -0.213721
hessian_block                1       9          -0.380045           0.072420           0.184538           0.949649           0.140207          -0.047180          -0.360455          -0.414892           0.121395
hessian_block                1      10          -2.344210          -0.072013           0.998527           1.224062          -1.927408          -0.001897           1.676450           0.053773          -0.616995
hessian_block                1      11          -0.636703           0.488135           0.228047          -0.752333           0.131674           0.666858           0.221504           0.172173          -0.441577
hessian_block                1      12          -1.422328          -1.349459           0.701078          -0.382285          -2.690320           0.675437           0.650976           0.797905          -0.662497
hessian_block                2       2          15.347041           3.001810           7.965431           3.001810           9.681652           3.140111           7.965431           3.140111           9.986132
hessian_block                2       3           0.234482           0.486555           0.509502          -0.662001           0.148029           0.169137          -0.344496          -0.401384           0.085866
hessian_block                2       4           3.715195           0.548891           6.144608          -1.018567           0.441571          -1.169183          -4.220570          -0.583503          -5.691111
hessian_block                2       5          -6.207075          -1.712847          -3.795807           2.726676          -0.150813           3.646412           0.236034           0.716806          -0.878319
hessian_block                2       6          -1.436467          -0.814529          -0.335255           0.763273           0.326009           0.331249           0.444189           0.774203           0.004514
hessian_block                2       7          -2.153622          -0.294199          -3.434180          -3.560617          -3.390599          -3.706492          -2.181724          -1.739308          -2.100993
hessian_block                2       8           0.895501           0.690304           0.159257           0.398097          -0.459979           0.109087          -1.377882          -0.437548          -0.616209
hessian_block                2       9          -5.862101          -0.295147          -3.873105           3.622037          -0.123007           3.067938          -2.919611          -0.779553          -1.388058
hessian_block                2      10          -0.361435          -0.294386          -0.206610           0.524920          -0.398950           0.201748          -0.579859          -0.004124          -0.224513
hessian_block                2      11          -3.143862          -1.311781          -3.357539          -4.150184          -4.529381          -4.248636           0.083729          -0.675451          -1.211059
hessian_block                2      12          -0.590479          -0.945212          -0.169518           0.435515           0.382952           0.084033           0.301164           0.730689          -0.632940
hessian_block                3       3           8.668323           0.425319           1.684662           0.425319           9.825767          -1.529462           1.684662          -1.529462           3.315107
hessian_block                3       4           0.258091          -0.383316           0.017925          -0.541797          -0.357997          -0.205774          -0.104954           0.657431           0.255895
hessian_block                3       5          -0.412137          -0.208311           0.263857          -0.237632           0.209762           0.091425           0.796916           0.206934          -0.301288
hessian_block                3       6          -0.640786           1.890558          -0.147067           0.690490          -3.287138           1.398805           0.417368           1.350898          -0.529341
hessian_block                3       7          -0.012065           0.085630          -0.107044          -0.184291           0.801547          -0.089459          -0.647764          -0.694045           0.032316
hessian_block                3       8          -2.468578          -0.910793          -0.641721          -0.957789          -1.375731           0.027030          -0.529958           0.248247          -0.406916
hessian_block                3       9          -0.214276           0.547392           0.204333           0.764730          -0.326141           0.284958          -0.499870          -0.382258          -0.017017
hessian_block                3      10          -0.958514           0.343615          -0.069960          -0.860366          -3.648677           0.942098           0.003222           0.768452          -0.624608
hessian_block                3      11           0.226136           0.608050          -0.032499          -0.309224          -0.345434           0.482736           0.401261           0.312990          -0.406552
hessian_block                3      12          -3.309472          -0.337774          -0.843680          -0.987170          -0.532530          -0.360283          -0.847856          -0.044759          -0.513825
hessian_block                4       4          17.034053          -2.953982          -8.481666          -2.953982          12.694538           3.152728          -8.481666           3.152728           9.215197
hessian_block                4       5          -3.455502           1.852690           2.906763           5.551408          -6.124659          -4.649188           0.078911          -1.268213          -2.067637
hessian_block                4       6          -1.095572           0.146184           0.568559           0.420958          -1.097026          -0.527116          -0.351742           0.272636           0.448457
hessian_block                4       7          -6.454330          -0.340207           4.246629          -2.438096           0.511312           1.941789          -0.168340          -0.238459           0.854131
hessian_block                4       8           0.521723          -0.815838          -0.526957           0.165424           0.092302          -0.409767          -0.799929          -0.367301           0.902161
hessian_block                4       9          -1.888324           1.154922           2.014604           3.728985          -5.196938          -3.814687          -0.224886          -1.601415           0.018928
hessian_block                4      10           0.091922          -0.050985           0.005669           0.728989           1.106856          -0.933254          -0.369568          -0.026145           0.324936
hessian_block                4      11          -7.345165           1.382810           3.870084          -3.561257          -1.107869           3.211304           0.680635           0.751603          -1.795145
hessian_block                4      12          -0.102873           1.483136          -0.036420           0.212145           0.347580          -0.709279          -0.663774           0.802900           0.673310
hessian_block                5       5           9.141684          -2.093688          -1.317226          -2.093688          10.794312          -1.375884          -1.317226          -1.375884           5.703869
hessian_block                5       6           0.892670           0.080993          -0.155389          -0.912981          -0.143738           0.842621          -0.642573          -0.848489           0.598226
hessian_block                5       7           0.475646          -1.285321          -0.166535           1.204553          -0.820676          -0.363454           0.949938           0.015338          -0.301669
hessian_block                5       8          -1.104722           0.336758           0.282247           0.547603          -0.126862           0.004883           0.732550           0.323740          -0.527904
hessian_block                5       9          -0.251397          -2.115969           1.117139          -2.174151          -0.019510           2.698745           2.331856           2.267742          -2.098222
hessian_block                5      10           0.136008           0.410813          -0.367147           0.436288           0.695451          -1.086962           0.493096           0.254758          -0.499217
hessian_block                5      11           2.479848          -3.030261           0.074242           2.697875          -1.184137          -0.322159          -0.014982          -0.614742           1.012897
hessian_block                5      12           1.355376           0.139642          -1.030870          -0.396093           0.095172          -0.019137          -0.392819          -1.004914           0.114716
hessian_block                6       6           8.197285           0.217585           0.881747           0.217585           8.817130           1.630647           0.881747           1.630647           5.249785
hessian_block                6       7           0.029958           0.469815           0.602177           0.475313          -1.298578           0.028740          -0.084986           0.425492          -0.449864
hessian_block                6       8          -0.142416           1.038060           0.530342          -0.640157           0.400157          -0.443746           0.472191          -0.366390          -0.607071
hessian_block                6       9           0.541670           0.080683           0.204669          -0.438632           1.619699           0.377620           0.062514          -0.330834          -0.934222
hessian_block                6      10          -1.069948          -1.109461          -1.781287          -1.916994          -2.492068          -2.719271          -2.255050          -2.868688          -2.422914
hessian_block                6      11           1.033872          -0.846460          -0.214440           0.744436           0.491921          -0.383910          -0.113871          -0.399475           0.152152
hessian_block                6      12           0.872372          -1.438250          -0.800560          -0.305854          -0.808744          -0.189684          -0.311533           0.148751           0.763275
hessian_block                7       7           9.089258           1.178721           1.565090           1.178721           7.888950           0.288482           1.565090           0.288482           4.525234
hessian_block                7       8           0.528226          -0.397977           0.344271          -0.219286          -0.925876           0.201560           0.276339           0.298040          -0.344765
hessian_block                7       9           1.421135           1.632046           1.082620          -2.189341          -2.179868          -0.430261           0.224400           1.139706           0.289112
hessian_block                7      10           0.047476           0.005373           0.275246          -0.758347           0.235380           0.737232          -0.165950           0.440639          -0.528416
hessian_block                7      11          -0.197457           2.102158          -1.210939           2.521463          -0.330394           2.584626          -1.844978           1.782198          -1.752214
hessian_block                7      12          -0.623253           0.488052           0.266233          -0.314692           0.361295           0.155015           0.600008           0.550263          -0.044695
hessian_block                8       8           6.283659           0.071796          -1.143673           0.071796           7.037954           0.845721          -1.143673           0.845721           4.666340
hessian_block                8       9           0.022470          -0.602753           0.303508           0.422511           0.640260          -0.394948          -0.007389           0.017738           0.022555
hessian_block                8      10           0.062518           0.341888           0.101550          -0.362369           0.337666          -0.259745          -0.576042           0.140863           0.301632
hessian_block                8      11          -0.895824          -0.298137           0.897277          -0.326447           0.596803           0.708391          -0.198157          -0.223053          -0.471052
hessian_block                8      12          -1.761638           1.205795           1.412045           1.158668          -1.607197          -1.471098           1.760884          -1.912563          -2.419940
hessian_block                9       9           7.945409          -1.975338           0.164712          -1.975338          10.294164          -1.241693           0.164712          -1.241693           4.910640
hessian_block                9      10           0.234141          -0.326221           0.309235          -0.530573          -1.196579           1.018170          -0.086255          -0.470657           0.086811
hessian_block                9      11           0.757482          -1.101293           0.461200           1.141975          -0.361989           0.739028           0.011217           0.147828          -0.233546
hessian_block                9      12          -0.326165          -1.282935           0.458294          -0.090440          -0.506051           0.419343           0.340893          -0.398204          -0.482095
hessian_block               10      10           5.931753           0.544152           0.811496           0.544152           8.906913           1.610359           0.811496           1.610359           5.273673
hessian_block               10      11          -0.185601          -0.497410           0.758895           0.252158          -0.487936          -0.116619          -0.243386          -0.050506          -0.040498
hessian_block               10      12           0.415892           1.467646           0.289566          -0.003924           0.885086           0.484775          -0.233111          -0.040973          -0.554774
hessian_block               11      11           9.692796           1.499821           1.091656           1.499821           9.304159          -1.349350           1.091656          -1.349350           5.249654
hessian_block               11      12           0.214477           0.241719          -0.074626           0.143680          -0.813605           0.400865          -0.153566          -0.486763           0.172255
hessian_block               12      12           7.278090           0.530450          -1.051266           0.530450           6.546257           1.210141          -1.051266           1.210141           5.178508
hessian_block_lv             1       1          30.558806          -0.000000           0.000000          -0.000000          25.000000          -0.000000           0.000000          -0.000000          25.000000
hessian_block_lv             1       2          -0.000000          -0.000000          -0.000000          -3.419683          -0.000000           0.000000          -0.000000           0.000000           0.000000
hessian_block_lv             1       3          -0.000000          -0.000000           0.000000           0.000000          -0.000000          -0.000000           9.178061           0.000000           0.000000
hessian_block_lv             2       2          25.000000          -0.000000           0.000000          -0.000000          25.165231          -0.000000           0.000000          -0.000000          25.000000
hessian_block_lv             2       3          -0.000000           0.000000          -0.000000          -0.000000           0.000000          -0.000000           0.000000           2.020702          -0.000000
hessian_block_lv             3       3          25.000000          -0.000000           0.000000          -0.000000          25.000000          -0.000000           0.000000          -0.000000          14.729048
hessian_block_lv_atom        1       1          -4.467802           0.000000           0.000000           0.167779          -0.000000           0.000000           1.384674           0.000000           0.000000
hessian_block_lv_atom        1       2          -4.263663           0.000000          -0.000000          -2.479505           0.000000           0.000000          -3.182451           0.000000           0.000000
hessian_block_lv_atom        1       3          -0.818791          -0.000000           0.000000           1.040616          -0.000000           0.000000           0.022636           0.000000           0.000000
hessian_block_lv_atom        1       4          -8.207935           0.000000          -0.000000           0.565575          -0.000000          -0.000000           5.310725          -0.000000          -0.000000
hessian_block_lv_atom        1       5           6.081611          -0.000000           0.000000          -1.901747           0.000000           0.000000          -3.231131           0.000000          -0.000000
hessian_block_lv_atom        1       6           3.970261          -0.000000          -0.000000          -1.919018          -0.000000           0.000000          -1.331283          -0.000000           0.000000
hessian_block_lv_atom        1       7           1.270896          -0.000000           0.000000           1.596208           0.000000           0.000000           1.664549          -0.000000          -0.000000
hessian_block_lv_atom        1       8          -2.611939          -0.000000           0.000000           0.504587          -0.000000          -0.000000           1.809973           0.000000          -0.000000
hessian_block_lv_atom        1       9          -0.490375           0.000000           0.000000          -1.627477           0.000000           0.000000           2.864725          -0.000000          -0.000000
hessian_block_lv_atom        1      10          -0.129931           0.000000          -0.000000           0.497810           0.000000          -0.000000           0.473488           0.000000          -0.000000
hessian_block_lv_atom        1      11           5.804492          -0.000000          -0.000000           3.842155          -0.000000           0.000000          -2.333250           0.000000          -0.000000
hessian_block_lv_atom        1      12           3.863175           0.000000          -0.000000          -0.487598           0.000000           0.000000          -1.467520          -0.000000           0.000000
hessian_block_lv_atom        2       1           0.000000          -0.955534           0.000000          -0.000000          -2.020549          -0.000000          -0.000000           1.631902          -0.000000
hessian_block_lv_atom        2       2           0.000000          -1.505598          -0.000000           0.000000          -1.875417          -0.000000           0.000000          -0.164929          -0.000000
hessian_block_lv_atom        2       3          -0.000000          -1.905700          -0.000000           0.000000          -6.064556          -0.000000          -0.000000           1.456761           0.000000
hessian_block_lv_atom        2       4          -0.000000          -1.595809           0.000000           0.000000          -2.437528           0.000000          -0.000000           0.314226          -0.000000
hessian_block_lv_atom        2       5          -0.000000           1.718066          -0.000000           0.000000           0.662163           0.000000           0.000000           0.342367           0.000000
hessian_block_lv_atom        2       6          -0.000000          -0.159412          -0.000000          -0.000000           4.135669          -0.000000          -0.000000          -2.568582          -0.000000
hessian_block_lv_atom        2       7          -0.000000           1.190232          -0.000000          -0.000000          -2.776461          -0.000000          -0.000000           0.581705           0.000000
hessian_block_lv_atom        2       8          -0.000000           0.194043           0.000000           0.000000           5.308982           0.000000          -0.000000           2.388902           0.000000
hessian_block_lv_atom        2       9          -0.000000          -0.048612           0.000000          -0.000000           2.493497          -0.000000          -0.000000           0.144881           0.000000
hessian_block_lv_atom        2      10           0.000000           1.019995           0.000000           0.000000           1.301959           0.000000           0.000000           0.029784           0.000000
hessian_block_lv_atom        2      11           0.000000           0.236383          -0.000000          -0.000000           4.353789           0.000000           0.000000          -1.597579           0.000000
hessian_block_lv_atom        2      12           0.000000           1.811945           0.000000          -0.000000          -2.494125          -0.000000          -0.000000          -3.192619           0.000000
hessian_block_lv_atom        3       1           0.000000           0.000000          -0.351899           0.000000           0.000000          -0.217040          -0.000000           0.000000           0.348126
hessian_block_lv_atom        3       2           0.000000          -0.000000          -1.915250           0.000000          -0.000000          -0.370245          -0.000000          -0.000000           0.491287
hessian_block_lv_atom        3       3           0.000000           0.000000          -0.872336           0.000000          -0.000000          -0.059838          -0.000000           0.000000           0.369858
hessian_block_lv_atom        3       4           0.000000          -0.000000          -2.091530          -0.000000          -0.000000           0.280488          -0.000000          -0.000000           4.089351
hessian_block_lv_atom        3       5          -0.000000           0.000000           2.531943           0.000000           0.000000           0.958647          -0.000000          -0.000000          -6.346617
hessian_block_lv_atom        3       6          -0.000000          -0.000000           0.162369          -0.000000          -0.000000          -0.262520          -0.000000          -0.000000          -0.776582
hessian_block_lv_atom        3       7          -0.000000          -0.000000           2.436072          -0.000000          -0.000000          -0.320575           0.000000          -0.000000           3.836451
hessian_block_lv_atom        3       8          -0.000000          -0.000000          -0.114525          -0.000000           0.000000          -0.282788           0.000000           0.000000           0.261802
hessian_block_lv_atom        3       9          -0.000000           0.000000          -0.393616          -0.000000           0.000000          -2.691411           0.000000           0.000000           3.873790
hessian_block_lv_atom        3      10           0.000000           0.000000           0.394757          -0.000000          -0.000000           1.088549           0.000000           0.000000           0.016165
hessian_block_lv_atom        3      11          -0.000000           0.000000          -0.523115          -0.000000           0.000000           2.639124          -0.000000          -0.000000          -5.865190
hessian_block_lv_atom        3      12          -0.000000          -0.000000           0.737131          -0.000000          -0.000000          -0.153483          -0.000000          -0.000000          -0.112503
