# 
# This is the geometry file that corresponds to the current relaxation step.
# If you do not want this file to be written, set the "write_restart_geometry" flag to .false.
#  aims_uuid : 491A65BD-38E0-4912-ACC4-5F7C76C676CB                                
# 
lattice_vector      3.86824516     -0.00000000      0.00000000
lattice_vector     -1.93418459      3.35010600      0.00000000
lattice_vector     -0.00000000      0.00000000      6.63569093
atom       0.00027640     -0.00015397     -0.00041701 Hf
atom       0.00064713      2.23404607      4.82596210 Te
atom       1.93313703      1.11621389      1.81014584 Te
# 
# What follows is the current estimated Hessian matrix constructed by the BFGS algorithm.
# This is NOT the true Hessian matrix of the system.
# If you do not want this information here, switch it off using the "hessian_to_restart_geometry" keyword.
# 
trust_radius             0.2000000030
hessian_block                1       1           3.816229          -0.775688           0.147942          -0.775688           2.925584          -0.084140           0.147942          -0.084140          13.535546
hessian_block                1       2          -1.021039           0.453255           0.098101           0.477886          -0.514931          -0.013504          -0.249276           0.143658          -6.085752
hessian_block                1       3          -0.795191           0.322435          -0.246043           0.297802          -0.410653           0.097644           0.101334          -0.059518          -5.449793
hessian_block                2       2           3.524809          -0.754746           0.189403          -0.754746           2.681866          -0.105511           0.189403          -0.105511           9.835702
hessian_block                2       3          -0.503770           0.276860           0.059873           0.301492          -0.166935          -0.038148          -0.287504           0.119015          -1.749948
hessian_block                3       3           3.298961          -0.599294           0.186170          -0.599294           2.577589          -0.059497           0.186170          -0.059497           9.199742
hessian_block_lv             1       1          17.146255           0.000000           0.000000           0.000000          25.000000           0.000000           0.000000           0.000000          25.000000
hessian_block_lv             1       2           4.421743           0.000000           0.000000          -7.658685           0.000000           0.000000           0.000000           0.000000           0.000000
hessian_block_lv             1       3           0.000000           0.000000           0.000000           0.000000           0.000000           0.000000          -0.133010           0.000000           0.000000
hessian_block_lv             2       2          22.725520           3.939514           0.000000           3.939514          18.176561           0.000000           0.000000           0.000000          25.000000
hessian_block_lv             2       3           0.000000           0.000000           0.000000           0.000000           0.000000           0.000000          -0.170816           0.295863           0.000000
hessian_block_lv             3       3          25.000000           0.000000           0.000000           0.000000          25.000000           0.000000           0.000000           0.000000           0.731949
hessian_block_lv_atom        1       1          -0.127512           0.000000           0.000000           0.073406           0.000000           0.000000           0.184651           0.000000           0.000000
hessian_block_lv_atom        1       2          -1.277934           0.000000           0.000000           0.704986           0.000000           0.000000          -3.045322           0.000000           0.000000
hessian_block_lv_atom        1       3           1.405446           0.000000           0.000000          -0.778392           0.000000           0.000000           2.860671           0.000000           0.000000
hessian_block_lv_atom        2       1          -0.309819           0.536623           0.000000           0.179434          -0.310789           0.000000          -0.671653           1.163338           0.000000
hessian_block_lv_atom        2       2           0.768545          -1.331157           0.000000          -0.440751           0.763403           0.000000           1.527270          -2.645307           0.000000
hessian_block_lv_atom        2       3          -0.458725           0.794534           0.000000           0.261317          -0.452614           0.000000          -0.855615           1.481969           0.000000
hessian_block_lv_atom        3       1           0.000000           0.000000           0.181864           0.000000           0.000000          -0.105243           0.000000           0.000000           0.351092
hessian_block_lv_atom        3       2           0.000000           0.000000          -0.071292           0.000000           0.000000           0.060975           0.000000           0.000000           0.510358
hessian_block_lv_atom        3       3           0.000000           0.000000          -0.110572           0.000000           0.000000           0.044269           0.000000           0.000000          -0.861450
