# 
# This is the geometry file that corresponds to the current relaxation step.
# If you do not want this file to be written, set the "write_restart_geometry" flag to .false.
#  aims_uuid : 090A1120-3B95-4EC5-ACD9-1593EC1A12DF                                
# 
lattice_vector      3.60525160     -0.00000000      0.00000000
lattice_vector     -1.80306710      3.12300383      0.00000000
lattice_vector      0.00000000     -0.00000000      5.81885363
atom      -0.00002883      0.00001845     -0.00033453 Hf
atom       1.80224059      1.04139108      1.46376640 S
atom      -0.00002726      2.08159430      4.35542176 S
# 
# What follows is the current estimated Hessian matrix constructed by the BFGS algorithm.
# This is NOT the true Hessian matrix of the system.
# If you do not want this information here, switch it off using the "hessian_to_restart_geometry" keyword.
# 
trust_radius             0.0225107758
hessian_block                1       1           5.390557          -0.002202           0.086591          -0.002202           5.387320          -0.047736           0.086591          -0.047736          15.425325
hessian_block                1       2          -1.701940           0.003649          -2.184228          -0.000812          -1.691943           1.210347          -0.089667           0.051544          -8.325662
hessian_block                1       3          -1.688617          -0.001446           2.097637           0.003015          -1.695377          -1.162611           0.003076          -0.003808          -5.099663
hessian_block                2       2           5.551924          -1.075333           2.200389          -1.075333           4.330657          -1.244366           2.200389          -1.244366          14.539146
hessian_block                2       3          -1.849984           1.076145          -2.110722           1.071684          -0.638714           1.192821          -0.016161           0.034019          -4.213484
hessian_block                3       3           5.538601          -1.074699           0.013085          -1.074699           4.334091          -0.030210           0.013085          -0.030210          11.313147
hessian_block_lv             1       1          46.282584          -0.000000           0.000000          -0.000000          25.000000           0.000000           0.000000           0.000000          25.000000
hessian_block_lv             1       2          -9.005532           0.000000          -0.000000          15.598040          -0.000000           0.000000           0.000000           0.000000          -0.000000
hessian_block_lv             1       3           0.000000          -0.000000          -0.000000          -0.000000           0.000000          -0.000000          -0.126433          -0.000000           0.000000
hessian_block_lv             2       2          28.776034          -6.540282          -0.000000          -6.540282          36.328101           0.000000          -0.000000           0.000000          25.000000
hessian_block_lv             2       3          -0.000000           0.000000          -0.000000           0.000000          -0.000000           0.000000           0.112892          -0.195534           0.000000
hessian_block_lv             3       3          25.000000          -0.000000           0.000000          -0.000000          25.000000          -0.000000           0.000000          -0.000000           0.468775
hessian_block_lv_atom        1       1          -0.013877          -0.000000          -0.000000           0.008219           0.000000           0.000000          -6.288839           0.000000          -0.000000
hessian_block_lv_atom        1       2           7.049852          -0.000000           0.000000          -4.011330           0.000000          -0.000000          13.073878          -0.000000           0.000000
hessian_block_lv_atom        1       3          -7.035975           0.000000          -0.000000           4.003111          -0.000000           0.000000          -6.785039           0.000000          -0.000000
hessian_block_lv_atom        2       1           0.000428          -0.000741          -0.000000           0.000467          -0.000808           0.000000           2.694286          -4.666640           0.000000
hessian_block_lv_atom        2       2          -3.138741           5.436459           0.000000           1.800941          -3.119321          -0.000000          -5.909857          10.236173          -0.000000
hessian_block_lv_atom        2       3           3.138313          -5.435718          -0.000000          -1.801407           3.120129           0.000000           3.215572          -5.569533           0.000000
hessian_block_lv_atom        3       1           0.000000           0.000000           0.016059          -0.000000          -0.000000          -0.010665           0.000000          -0.000000          -0.132034
hessian_block_lv_atom        3       2          -0.000000          -0.000000          -0.098338           0.000000           0.000000           0.099074           0.000000          -0.000000          -0.359141
hessian_block_lv_atom        3       3           0.000000           0.000000           0.082279          -0.000000          -0.000000          -0.088409          -0.000000           0.000000           0.491175
