# 
# This is the geometry file that corresponds to the current relaxation step.
# If you do not want this file to be written, set the "write_restart_geometry" flag to .false.
#  aims_uuid : 10F70BF6-7FD8-4326-A682-E17AA03D48B1                                
# 
lattice_vector      3.87495042      0.00000000      0.00000000
lattice_vector     -1.93745432      3.35576933      0.00000000
lattice_vector     -0.00000000     -0.00000000     99.99459342
atom       1.93677296     -1.11756755    -16.60870029 Te
atom      -0.00128653      0.00052519    -14.79463651 Hf
atom      -1.93701680      1.11807305     -6.27755741 Te
atom       0.00216378     -0.00201551     -8.09128795 Hf
atom       1.93776519     -1.11905125     -9.89878291 Te
atom      -1.93839860      1.12003608    -12.98818092 Te
# 
# What follows is the current estimated Hessian matrix constructed by the BFGS algorithm.
# This is NOT the true Hessian matrix of the system.
# If you do not want this information here, switch it off using the "hessian_to_restart_geometry" keyword.
# 
trust_radius             0.0133662934
hessian_block                1       1           2.787472          -0.305548           0.554545          -0.305548           2.410507          -0.277009           0.554545          -0.277009           8.669458
hessian_block                1       2          -0.455126           0.105832          -0.456743           0.099633          -0.291640           0.136704          -0.478190           0.251401          -5.263787
hessian_block                1       3          -0.559916           0.308204          -0.644155           0.328916          -0.179306           0.403720          -0.398535           0.272094          -0.556515
hessian_block                1       4           0.265231          -0.122567           0.748923          -0.170520           0.076900          -0.505744           0.133468          -0.110974           1.954130
hessian_block                1       5           0.291743          -0.183701          -0.121865          -0.162994           0.104507           0.102866           0.208290          -0.133207          -0.698806
hessian_block                1       6          -0.329404           0.197779          -0.080706           0.210513          -0.120967           0.139464          -0.019579          -0.002304          -2.104480
hessian_block                2       2           2.813996          -0.149501           0.511847          -0.149501           2.556708          -0.254393           0.511847          -0.254393          11.802339
hessian_block                2       3           0.234537          -0.099107           0.526208          -0.146185           0.057934          -0.308030           0.351959          -0.377185           1.567180
hessian_block                2       4          -0.405764           0.154641          -0.692337           0.261412          -0.093673           0.421819          -0.339955           0.300835          -1.507494
hessian_block                2       5           0.172736          -0.058494           0.193993          -0.110563           0.035634          -0.129448           0.037772           0.066012           1.404092
hessian_block                2       6          -0.360378           0.052827          -0.061521           0.039004          -0.264962           0.018652          -0.104881           0.128027          -6.002331
hessian_block                3       3           2.815605          -0.342067           0.262127          -0.342067           2.442259          -0.094821           0.262127          -0.094821           8.532053
hessian_block                3       4          -0.543626           0.196830           0.084093           0.199803          -0.368561          -0.138979          -0.040317          -0.007336          -5.887024
hessian_block                3       5          -0.270179           0.145034          -0.334728           0.148211          -0.078018           0.231553          -0.149906           0.054567          -1.942558
hessian_block                3       6           0.323581          -0.182528           0.035084          -0.215045           0.125693           0.107338           0.046043          -0.048099           0.286864
hessian_block                4       4           3.026218          -0.364307           0.028475          -0.364307           2.720251           0.032920           0.028475           0.032920          12.404615
hessian_block                4       5          -0.479757           0.161948           0.023218           0.157849          -0.344834          -0.042498          -0.206357           0.168358          -4.959169
hessian_block                4       6           0.137699          -0.088336           0.195109          -0.022447           0.009917          -0.172947           0.037203           0.021626          -0.005059
hessian_block                5       5           2.743534          -0.301860           0.351345          -0.301860           2.419294          -0.217543           0.351345          -0.217543           8.080370
hessian_block                5       6          -0.458076           0.269358          -0.241143           0.237074          -0.136582           0.061814          -0.111962           0.055071           0.116071
hessian_block                6       6           2.686578          -0.249099           0.153176          -0.249099           2.386902          -0.154320           0.153176          -0.154320           9.708935
hessian_block_lv             1       1          21.420561          -0.000000           0.000000          -0.000000          25.000000          -0.000000           0.000000          -0.000000          25.000000
hessian_block_lv             1       2           1.781614           0.000000          -0.000000          -3.085845          -0.000000           0.000000           0.000000          -0.000000          -0.000000
hessian_block_lv             1       3           0.000000           0.000000           0.000000           0.000000           0.000000           0.000000           0.422176           0.000000           0.000000
hessian_block_lv             2       2          24.113549           1.535378          -0.000000           1.535378          22.340647           0.000000          -0.000000           0.000000          25.000000
hessian_block_lv             2       3          -0.000000           0.000000          -0.000000          -0.000000           0.000000          -0.000000          -0.206917           0.358390          -0.000000
hessian_block_lv             3       3          25.000000          -0.000000          -0.000000          -0.000000          25.000000          -0.000000          -0.000000          -0.000000          24.943649
hessian_block_lv_atom        1       1          -1.501698          -0.000000          -0.000000           0.839033           0.000000           0.000000          -4.330944          -0.000000          -0.000000
hessian_block_lv_atom        1       2           0.267375           0.000000           0.000000          -0.072974           0.000000          -0.000000           0.517902           0.000000           0.000000
hessian_block_lv_atom        1       3           1.516314           0.000000           0.000000          -0.892727          -0.000000          -0.000000           2.553349           0.000000           0.000000
hessian_block_lv_atom        1       4          -0.311469          -0.000000          -0.000000           0.216005           0.000000           0.000000          -0.729272          -0.000000          -0.000000
hessian_block_lv_atom        1       5          -1.140393          -0.000000          -0.000000           0.636525           0.000000           0.000000          -1.770812           0.000000          -0.000000
hessian_block_lv_atom        1       6           1.169871           0.000000           0.000000          -0.725862          -0.000000          -0.000000           3.759777           0.000000           0.000000
hessian_block_lv_atom        2       1           0.753101          -1.304409          -0.000000          -0.420205           0.727816           0.000000           2.181154          -3.777870          -0.000000
hessian_block_lv_atom        2       2          -0.136734           0.236830           0.000000           0.036267          -0.062816          -0.000000          -0.249199           0.431625           0.000000
hessian_block_lv_atom        2       3          -0.761646           1.319209           0.000000           0.448961          -0.777623          -0.000000          -1.250663           2.166212           0.000000
hessian_block_lv_atom        2       4           0.162753          -0.281897          -0.000000          -0.113259           0.196170           0.000000           0.364638          -0.631571          -0.000000
hessian_block_lv_atom        2       5           0.567274          -0.982548          -0.000000          -0.316197           0.547670           0.000000           0.858440          -1.486862          -0.000000
hessian_block_lv_atom        2       6          -0.584748           1.012814           0.000000           0.364433          -0.631217          -0.000000          -1.904370           3.298466          -0.000000
hessian_block_lv_atom        3       1           0.000000           0.000000           0.008844          -0.000000          -0.000000          -0.002144           0.000000           0.000000           0.034932
hessian_block_lv_atom        3       2          -0.000000          -0.000000          -0.004754           0.000000          -0.000000          -0.014235          -0.000000          -0.000000           0.146843
hessian_block_lv_atom        3       3          -0.000000          -0.000000          -0.019133           0.000000           0.000000           0.017379          -0.000000          -0.000000           0.005399
hessian_block_lv_atom        3       4           0.000000          -0.000000           0.040002          -0.000000           0.000000          -0.031251           0.000000           0.000000           0.047795
hessian_block_lv_atom        3       5           0.000000           0.000000          -0.028936          -0.000000          -0.000000           0.020603           0.000000           0.000000          -0.145673
hessian_block_lv_atom        3       6          -0.000000          -0.000000           0.003977           0.000000           0.000000           0.009647          -0.000000          -0.000000          -0.089297
