# 
# This is the geometry file that corresponds to the current relaxation step.
# If you do not want this file to be written, set the "write_restart_geometry" flag to .false.
#  aims_uuid : 20407BC9-89D8-4C31-ABA6-A4714CC5C840                                
# 
lattice_vector      3.71127499      0.00000000      0.00000000
lattice_vector     -1.85549499      3.21381172      0.00000000
lattice_vector      0.00000008      0.00000050     98.63939967
atom       0.00040464     -0.00159989    -13.48980119 Hf
atom      -1.85367526      1.06866015    -15.08766356 Se
atom       1.85365112     -1.06844128     -5.69834611 Se
atom      -0.00038425      0.00121962     -7.29486125 Hf
atom      -1.85439047      1.07219568     -8.89401239 Se
atom       1.85439421     -1.07203428    -11.89198291 Se
# 
# What follows is the current estimated Hessian matrix constructed by the BFGS algorithm.
# This is NOT the true Hessian matrix of the system.
# If you do not want this information here, switch it off using the "hessian_to_restart_geometry" keyword.
# 
trust_radius             0.0087234646
hessian_block                1       1           0.970011           0.000027           0.000236           0.000027           0.969988           0.000133           0.000236           0.000133           0.972519
hessian_block                1       2           0.000418           0.001074           0.009267          -0.000206          -0.000619          -0.005083          -0.005252          -0.010870          -0.101377
hessian_block                1       3          -0.000428          -0.001086          -0.009410           0.000281           0.000690           0.006045           0.005829           0.012095           0.112688
hessian_block                1       4          -0.000007          -0.000025          -0.000190          -0.000148          -0.000095          -0.001649          -0.001014          -0.001860          -0.018208
hessian_block                1       5           0.000449           0.001098           0.009630          -0.000141          -0.000495          -0.003884          -0.005151          -0.009829          -0.094665
hessian_block                1       6          -0.000443          -0.001088          -0.009533           0.000188           0.000531           0.004437           0.005352           0.010332           0.099044
hessian_block                2       2           0.985647          -0.007638          -0.198966          -0.007638           0.973623           0.100219          -0.198966           0.100219           3.408757
hessian_block                2       3          -0.016039           0.007846           0.203451           0.010551          -0.005189          -0.133037           0.220788          -0.111175          -2.707293
hessian_block                2       4          -0.000240           0.000108           0.003313          -0.005827           0.003184           0.064104          -0.038643           0.019743           0.465445
hessian_block                2       5           0.016843          -0.008286          -0.212258          -0.005129           0.002344           0.069912          -0.195920           0.099657           2.372817
hessian_block                2       6          -0.016630           0.008177           0.209712           0.006969          -0.003343          -0.090328           0.203474          -0.103362          -2.468349
hessian_block                3       3           0.986438          -0.010809          -0.225771          -0.010809           0.977101           0.147641          -0.225771           0.147641           3.975384
hessian_block                3       4           0.000247          -0.000165          -0.003673           0.005919          -0.003806          -0.071251           0.039470          -0.025737          -0.516795
hessian_block                3       5          -0.017254           0.011334           0.235560           0.005283          -0.003517          -0.077525           0.200182          -0.130646          -2.634437
hessian_block                3       6           0.017037          -0.011192          -0.232732          -0.007152           0.004720           0.100215          -0.207922           0.135734           2.740452
hessian_block                4       4           0.970003           0.000118           0.000667           0.000118           0.971076           0.011551           0.000667           0.011551           1.058065
hessian_block                4       5          -0.000264          -0.006063          -0.041052           0.000065           0.002423           0.014000           0.003345           0.059990           0.450189
hessian_block                4       6           0.000260           0.006001           0.040573          -0.000102          -0.002783          -0.017698          -0.003463          -0.062746          -0.468696
hessian_block                5       5           0.988090          -0.005620          -0.208409          -0.005620           0.971441           0.070312          -0.208409           0.070312           3.269353
hessian_block                5       6          -0.017864           0.005542           0.205952           0.007537          -0.002196          -0.089484           0.216529          -0.072815          -2.393258
hessian_block                6       6           0.987641          -0.007439          -0.213971          -0.007439           0.973071           0.092858          -0.213971           0.092858           3.460806
hessian_block_lv             1       1          21.423290           0.000000           0.000000           0.000000          25.000000           0.000000           0.000000           0.000000          25.000000
hessian_block_lv             1       2           2.027514           0.000000           0.000000          -3.511757           0.000000           0.000000           0.000000           0.000000           0.000000
hessian_block_lv             1       3           0.000000           0.000000           0.000000           0.000000           0.000000           0.000000           0.146888           0.000000           0.000000
hessian_block_lv             2       2          23.859164           1.975986           0.000000           1.975986          21.577491           0.000000           0.000000           0.000000          25.000000
hessian_block_lv             2       3          -0.000000           0.000000           0.000000          -0.000000           0.000000           0.000000          -0.078153           0.135364           0.000000
hessian_block_lv             3       3          25.000000          -0.000000          -0.000000          -0.000000          25.000000          -0.000000          -0.000000          -0.000000          24.997046
hessian_block_lv_atom        1       1           0.006071           0.000000           0.000000          -0.008247           0.000000           0.000000          -0.001887           0.000000           0.000000
hessian_block_lv_atom        1       2           0.249938           0.000000           0.000000          -0.150235           0.000000           0.000000          -2.347111           0.000000           0.000000
hessian_block_lv_atom        1       3          -0.251686           0.000000           0.000000           0.158254           0.000000           0.000000           2.614194           0.000000           0.000000
hessian_block_lv_atom        1       4          -0.006242           0.000000           0.000000          -0.002089           0.000000           0.000000          -0.381079           0.000000           0.000000
hessian_block_lv_atom        1       5           0.251605           0.000000           0.000000          -0.124630           0.000000           0.000000          -2.050599           0.000000           0.000000
hessian_block_lv_atom        1       6          -0.249688           0.000000           0.000000           0.126947           0.000000           0.000000           2.166482           0.000000           0.000000
hessian_block_lv_atom        2       1          -0.003015           0.005222           0.000000           0.004927          -0.008534           0.000000           0.005696          -0.009865           0.000000
hessian_block_lv_atom        2       2          -0.124913           0.216355           0.000000           0.075979          -0.131599           0.000000           1.146680          -1.986108           0.000000
hessian_block_lv_atom        2       3           0.125643          -0.217620           0.000000          -0.078765           0.136425           0.000000          -1.277578           2.212830           0.000000
hessian_block_lv_atom        2       4           0.003196          -0.005535           0.000000          -0.001841           0.003188           0.000000           0.182966          -0.316906           0.000000
hessian_block_lv_atom        2       5          -0.125193           0.216841           0.000000           0.063640          -0.110229           0.000000           0.990632          -1.715826           0.000000
hessian_block_lv_atom        2       6           0.124282          -0.215263           0.000000          -0.063941           0.110748           0.000000          -1.048396           1.815875           0.000000
hessian_block_lv_atom        3       1           0.000000           0.000000           0.000008           0.000000           0.000000           0.000491           0.000000           0.000000           0.002863
hessian_block_lv_atom        3       2          -0.000000          -0.000000          -0.000168           0.000000           0.000000           0.000640          -0.000000          -0.000000          -0.014286
hessian_block_lv_atom        3       3           0.000000           0.000000           0.000083           0.000000           0.000000           0.000090           0.000000           0.000000           0.015662
hessian_block_lv_atom        3       4           0.000000           0.000000           0.000050          -0.000000          -0.000000          -0.001735          -0.000000          -0.000000          -0.004252
hessian_block_lv_atom        3       5           0.000000           0.000000           0.000164           0.000000           0.000000           0.000899          -0.000000          -0.000000          -0.019217
hessian_block_lv_atom        3       6          -0.000000          -0.000000          -0.000137          -0.000000          -0.000000          -0.000384           0.000000           0.000000           0.019230
