# 
# This is the geometry file that corresponds to the current relaxation step.
# If you do not want this file to be written, set the "write_restart_geometry" flag to .false.
#  aims_uuid : 4369D5C6-2305-4BAF-A0CA-CBE443045BB6                                
# 
lattice_vector      5.68280734     -0.00000000     -0.00000000
lattice_vector     -0.00000000      5.71105057     -0.00000000
lattice_vector      0.00000000     -0.00000000     99.99652334
atom       2.20807461      2.49488453    -21.22022708 P
atom       0.03277975     -0.02623673    -13.99760647 Pd
atom       0.04544398      2.82811772    -23.80705241 Pd
atom      -2.12912182     -0.35877160    -16.58340108 P
atom      -2.13278365     -0.71847457    -14.38697397 P
atom       0.05440296      1.79811834    -20.78992778 Pd
atom       0.02366377     -1.05693680    -17.01390143 Pd
atom       2.21063408      2.13598425    -23.41677451 P
atom      -2.80041572      1.79927525    -17.01288626 Pd
atom      -0.59856872      0.62851840    -24.39432380 S
atom      -2.14993428     -2.22689959    -24.39403147 S
atom       2.87760634     -1.05750431    -20.79053832 Pd
atom       2.88970006     -0.02718397    -23.80486379 Pd
atom       0.67751212      1.14762502    -17.56252183 S
atom      -0.59917451     -1.70806454    -20.24111954 S
atom      -2.81081153      2.82922716    -13.99780233 Pd
atom       0.72363844     -0.71953909    -23.41690783 P
atom       0.67715504     -2.22532668    -13.40911827 S
atom      -2.15157634      1.14681398    -20.23958408 S
atom      -0.64461269      2.13728230    -14.38649565 P
atom      -0.64649118      2.49606870    -16.58311447 P
atom       2.23006068     -1.70665144    -17.56325665 S
atom       2.22829493      0.62978483    -13.40931213 S
atom       0.72474373     -0.35964705    -21.22047525 P
# 
# What follows is the current estimated Hessian matrix constructed by the BFGS algorithm.
# This is NOT the true Hessian matrix of the system.
# If you do not want this information here, switch it off using the "hessian_to_restart_geometry" keyword.
# 
trust_radius             0.0077244213
hessian_block                1       1          10.369693           0.512619           1.288472           0.512619          11.346821           0.530165           1.288472           0.530165          12.854201
hessian_block                1       2           0.027719          -0.649729          -0.344495           0.119785           0.110617           0.068767           0.062939          -0.138689          -0.023180
hessian_block                1       3          -0.746579           0.632093           0.045297          -0.010437           1.113575          -0.448503           0.007042           0.529106           0.033764
hessian_block                1       4          -0.657826          -0.264698          -0.232627          -0.214743          -0.086247          -0.215538          -0.166152          -0.061534          -0.058986
hessian_block                1       5          -0.332477           0.481722           0.090127           0.495572          -0.804234          -0.038201           0.297797          -0.024008           0.260229
hessian_block                1       6          -4.210548          -1.097627           1.065789          -1.016718          -1.462372           0.067392           0.783748          -0.188984          -0.424140
hessian_block                1       7           0.295379          -0.468563           0.006070           0.014599           0.088495           0.137341           0.082623           0.125246           0.099557
hessian_block                1       8           0.401418          -0.180885           0.248277           0.036663          -1.395311          -1.672366          -0.291013          -1.757837          -8.938040
hessian_block                1       9          -0.362216           0.220177          -0.045621           0.001283           0.475966           0.077012          -0.070021           0.216368           0.122554
hessian_block                1      10           0.210064          -0.081663           0.155969          -0.422303          -0.292522           0.053728           0.309431          -0.268911           0.135435
hessian_block                1      11          -0.701508          -0.532680          -0.060306          -0.376019          -0.409642           0.174847           0.522121           0.115312           0.110666
hessian_block                1      12          -1.024147          -1.554198          -0.435854          -0.900710          -4.534434          -0.724259          -0.472248          -1.094408          -0.402675
hessian_block                1      13          -0.154517           0.425608          -0.201920           0.537265          -0.017385          -0.104381          -0.168041           0.338061           0.089530
hessian_block                1      14           0.295940          -0.083426          -0.076152           0.274148          -0.167702           0.012753           0.170779           0.092308           0.390276
hessian_block                1      15          -0.178702           0.649610           0.341005          -0.557005           0.303447           0.109207           0.201520           0.035112          -0.340526
hessian_block                1      16          -0.656610          -0.140604          -0.311257          -0.514571           1.145263          -0.056096          -0.041709          -0.443442          -0.112717
hessian_block                1      17           1.049528          -0.160861          -0.154123           0.263879           0.379537           0.439323          -0.347296          -0.090990          -0.227562
hessian_block                1      18           0.210296          -0.301692          -0.124492          -0.097305          -0.284096           0.052044          -0.071568          -0.210813          -0.197219
hessian_block                1      19          -2.679903           1.468022          -2.146031           2.202773          -2.469069           1.873705          -1.905591           1.727757          -1.865888
hessian_block                1      20           0.241715           0.341480           0.438173           0.284661          -0.240379           0.180221           0.086816           0.241090           0.273041
hessian_block                1      21          -0.273683           0.276907           0.160786          -0.039702           0.204936          -0.176708          -0.140688          -0.055011          -0.054623
hessian_block                1      22           0.569601           0.143307           0.091476          -0.161398          -0.221995           0.110774           0.207887          -0.068831           0.357333
hessian_block                1      23           0.619023           0.309076           0.267741          -0.158699          -0.215489          -0.143321          -0.326062           0.175891          -0.166542
hessian_block                1      24          -0.311657           0.056002          -0.066305          -0.332547          -0.605643          -0.313824          -0.020786           0.277043           0.085512
hessian_block                2       2          10.471163          -0.443698           2.211332          -0.443698          10.153094          -1.075392           2.211332          -1.075392           2.927898
hessian_block                2       3          -0.412852          -0.019455          -0.191775           0.704969          -0.287671          -0.011187          -0.225043          -0.052638          -0.042261
hessian_block                2       4           0.246198          -0.039021           0.029999          -0.071133          -0.018132          -0.320529           0.107938           0.075686           0.015367
hessian_block                2       5          -4.876368          -1.059202          -0.931712          -0.758360          -0.660250           0.141391          -1.065563          -0.193312          -0.404348
hessian_block                2       6          -0.694181           0.633730          -0.086598           0.696272          -0.698891          -0.073770           0.368787          -0.157650           0.194079
hessian_block                2       7           0.188633           0.006804           0.167417          -0.157645           0.287091          -0.038550          -0.278124          -0.010298          -0.289515
hessian_block                2       8          -0.422824           0.043798          -0.000035           0.351703          -0.393516           0.132094          -0.165549           0.117511           0.138434
hessian_block                2       9          -0.061836          -0.090994           0.002972           0.123544          -0.262656          -0.176295          -0.179800           0.054468          -0.080857
hessian_block                2      10          -0.177748          -0.034239          -0.009795          -0.125974          -0.259252          -0.151223           0.277753          -0.085809           0.155110
hessian_block                2      11          -0.048507          -0.118561          -0.115855          -0.698573           0.360861          -0.104978           0.343196          -0.114380           0.131976
hessian_block                2      12           0.407444           0.343198          -0.051066          -0.485497           0.727393          -0.157479           0.300205          -0.098444           0.058233
hessian_block                2      13           1.034281          -0.153503          -0.027754           0.067710           0.122307           0.241106          -0.196751           0.151856           0.151672
hessian_block                2      14          -0.167303           0.031817          -0.132835          -0.045603          -0.162348           0.021615           0.150621          -0.127890           0.015481
hessian_block                2      15          -0.208467          -0.525856          -0.018045          -0.165970           0.348842           0.065221          -0.235736           0.216124           0.032655
hessian_block                2      16           0.666025          -0.884431           0.101519          -0.224385          -0.575868          -0.139489           0.311361          -0.037567          -0.078090
hessian_block                2      17          -0.092558           0.355008           0.276775          -0.368573           0.304225          -0.061268           0.025724          -0.009718           0.144509
hessian_block                2      18          -0.706093           1.010097          -0.439775           0.510445          -1.789950           0.675203          -0.471850           0.834709          -0.387109
hessian_block                2      19           0.685310          -0.657311          -0.115708           0.218357           0.002390           0.133325          -0.058691           0.049233           0.050690
hessian_block                2      20          -0.875000           1.385957          -0.273314           1.136551          -4.610217           0.599708          -0.282606           0.747167          -0.380797
hessian_block                2      21           0.178380           0.117495          -0.003488           0.266403          -0.265291           0.319859           0.158200           0.145351           0.067578
hessian_block                2      22          -0.182376          -0.091666          -0.016831          -0.017855           0.609318           0.162615           0.192375          -0.118092          -0.040351
hessian_block                2      23          -2.782581          -0.001490          -0.606537          -0.325032          -0.701264          -0.173994          -0.774438          -0.280334          -0.326149
hessian_block                2      24          -0.196458           0.071738           0.168169           0.460329          -0.336016           0.128222          -0.168848          -0.099346          -0.031026
hessian_block                3       3          10.457285           0.020004           2.220009           0.020004          13.118961           1.620836           2.220009           1.620836           3.183711
hessian_block                3       4           0.234416           0.112146          -0.194686           0.275258           0.727489           0.429776          -0.028516           0.188727          -0.025545
hessian_block                3       5           0.144983           0.345573           0.086321          -1.009822          -0.739120          -0.451260          -0.147128          -0.209122           0.155821
hessian_block                3       6           0.004521           0.021939          -0.037234          -0.425345          -0.069923          -0.059125          -0.156133          -0.365476          -0.306566
hessian_block                3       7          -0.608827          -0.631511          -0.353357          -0.135374           0.093409          -0.030636           0.194093          -0.016469           0.278351
hessian_block                3       8          -4.555190           0.176540          -0.862474           1.571653          -2.577312          -0.381342          -0.805056          -0.126851          -0.487775
hessian_block                3       9           0.091334           0.193661          -0.028743           0.507892           0.716042           0.364280           0.171902          -0.171382          -0.003291
hessian_block                3      10          -0.631052          -1.298648          -0.238734           0.111332          -3.651112          -0.845840          -0.702096          -0.728156          -0.389420
hessian_block                3      11          -1.870600          -0.227880          -0.782596           0.633088          -1.673960           0.109840          -0.935249           0.726083          -0.202414
hessian_block                3      12           0.497613           0.361409          -0.463520          -0.489882          -0.182482          -0.074674           0.080781           0.285452          -0.107864
hessian_block                3      13           0.275815           2.535750           0.024049          -0.900280           0.515259          -0.055182           0.196748          -0.139575          -0.089606
hessian_block                3      14           0.030984           0.177821           0.247860          -0.356387          -0.223024           0.000814          -0.285990           0.023463           0.102030
hessian_block                3      15           0.246428          -0.166412           0.464009           0.158670           0.349375           0.005748          -0.138143           0.242627          -0.002344
hessian_block                3      16           0.167615           0.520671           0.060295           0.693014           1.514351           0.354577          -0.034684          -0.036232          -0.012468
hessian_block                3      17          -1.740219          -1.008199          -0.228434          -1.407864          -4.668849          -0.551091          -0.022716          -1.084315          -0.462469
hessian_block                3      18           0.130432          -0.210587          -0.040301          -0.203484          -0.296990          -0.019413           0.056715          -0.095365           0.128024
hessian_block                3      19          -0.209424           0.282454           0.049716           0.125603          -0.166795          -0.089466           0.039128           0.162847          -0.184731
hessian_block                3      20          -0.142864          -0.610572           0.198366           0.332174          -1.025479           0.145384           0.045584           0.044485           0.207792
hessian_block                3      21           0.289915           0.263281          -0.022911          -0.067832           0.108231          -0.361746           0.022036           0.184314          -0.054852
hessian_block                3      22           0.004500          -0.200488           0.209012          -0.234053          -0.340129          -0.285760          -0.178636          -0.101815           0.118194
hessian_block                3      23           0.029194          -0.849007          -0.055860           0.218211          -0.245413          -0.090679           0.301145           0.148762           0.099948
hessian_block                3      24           0.312573          -0.502477          -0.032786          -0.023751          -0.153214          -0.216314           0.252682          -0.093148           0.063970
hessian_block                4       4           9.994418          -0.555745           1.371280          -0.555745          11.357470          -0.252178           1.371280          -0.252178          12.745361
hessian_block                4       5           0.275040          -0.080483           0.156076           0.012996          -1.312371           1.772691          -0.236625           1.419769          -8.959535
hessian_block                4       6          -0.027821          -0.392225          -0.012149          -0.267538           0.141720          -0.186652           0.118632           0.006748           0.124943
hessian_block                4       7          -4.456664           0.937158           0.975357           1.769711          -0.770398          -0.308012           0.735873           0.017179          -0.413001
hessian_block                4       8          -0.748085           0.062463          -0.173062          -0.070294          -0.931470          -0.178894           0.222615           0.157407           0.217431
hessian_block                4       9          -0.091542           0.959764          -0.171351           1.194410          -4.147946           0.717955          -0.189580           0.455868          -0.306871
hessian_block                4      10          -0.042314          -0.462785          -0.026733           0.106793          -0.313158          -0.175299          -0.118293          -0.141224          -0.120664
hessian_block                4      11           0.596684           0.064399           0.077356           0.137456           0.438560           0.044114          -0.344246          -0.119359          -0.177493
hessian_block                4      12           0.583026          -0.266550           0.073764           0.010791          -0.086842          -0.026869           0.166309           0.272074           0.104079
hessian_block                4      13           0.411420           0.124050          -0.055460          -0.160795          -0.219877           0.129960           0.060850          -0.319190           0.071773
hessian_block                4      14          -0.461767           0.919915          -0.088282          -0.238272           0.108603          -0.024758          -0.173480          -0.164437          -0.264748
hessian_block                4      15          -0.221810          -0.002008          -0.140638           0.381058           0.280737           0.171105          -0.017622           0.118193           0.265286
hessian_block                4      16           0.512884           0.089657           0.147462           0.041895           0.265283          -0.084929           0.097318           0.288724           0.021592
hessian_block                4      17          -0.521762          -0.048126           0.189383          -0.267586           0.179275          -0.106906           0.222029           0.123050           0.169824
hessian_block                4      18          -0.237589           0.814637          -0.054749           0.198789           0.262999           0.106582           0.096208           0.478721           0.142840
hessian_block                4      19           0.429694           0.774599           0.046163           0.061618          -0.252244           0.047829           0.264457          -0.039583           0.292732
hessian_block                4      20          -0.388484          -0.343960          -0.233906          -0.491111           0.344000          -0.330691          -0.136303          -0.351465          -0.223021
hessian_block                4      21           0.232580          -0.324268          -0.061043           0.067385          -1.317806           0.070644           0.159126           0.061426           0.056122
hessian_block                4      22          -3.025052          -1.932595          -1.972057          -2.017420          -2.708744          -1.709370          -2.070986          -1.757005          -1.758853
hessian_block                4      23          -0.609619          -0.339756          -0.124283           0.055232          -0.065355          -0.041701           0.251553          -0.010378           0.100600
hessian_block                4      24          -0.026026           0.012478           0.163603           0.260095           0.153238           0.161758          -0.081799          -0.138049          -0.019231
hessian_block                5       5          10.312096           0.456744          -1.096405           0.456744          12.269435          -0.136410          -1.096405          -0.136410          12.924754
hessian_block                5       6           0.532228          -0.598760           0.155270          -0.933419           0.190162          -0.110724          -0.164326           0.570046           0.017191
hessian_block                5       7          -0.106504           0.648346           0.015672           0.294876          -0.231191           0.173959          -0.063003          -0.537736          -0.089932
hessian_block                5       8          -0.540124           0.582736           0.154085          -0.837049           0.672161          -0.121810           0.036966          -0.129336          -0.168504
hessian_block                5       9           0.513264          -0.119287          -0.167030          -0.204328          -0.340559           0.137402           0.091880          -0.217184          -0.116901
hessian_block                5      10           0.160806           0.295105           0.078506          -0.361292          -0.132037          -0.098524          -0.170893           0.197044           0.382822
hessian_block                5      11           0.255521          -0.315488          -0.235485           0.342258          -0.179267          -0.030766          -0.244681           0.225606           0.446218
hessian_block                5      12           0.066721          -0.519505          -0.037814           0.460787          -0.388989           0.381273          -0.101040          -0.046418           0.040272
hessian_block                5      13          -0.071195          -0.746814           0.069623           0.185223           0.475973          -0.040464           0.255183           0.084479           0.183058
hessian_block                5      14          -0.439640          -0.457163          -0.004085          -0.376590          -0.169966          -0.087961          -0.117425           0.167022           0.236257
hessian_block                5      15          -0.023973           0.157341           0.025581           0.457399          -0.448104           0.032276           0.227779          -0.009267          -0.152981
hessian_block                5      16          -0.638504          -1.234143          -0.187715          -1.418635          -6.373908           0.458970           0.105665           1.160884          -0.376915
hessian_block                5      17           0.069973           1.055895           0.063307           0.265509           0.390596           0.517765          -0.037249          -0.034850          -0.157685
hessian_block                5      18          -0.424451          -1.205348          -0.071268           0.585736           0.575804           0.218551           0.102419          -0.241990          -0.359421
hessian_block                5      19          -0.156271          -0.023718          -0.307123          -0.047960           0.599356           0.094497           0.148100          -0.267779          -0.310975
hessian_block                5      20           0.183066           0.505991           0.377579          -0.575565          -0.356705           0.180901          -0.014843          -0.037530           0.098416
hessian_block                5      21           0.374321           0.171294           0.288090          -0.014815           0.572585          -0.327852           0.113152           0.378698          -0.135481
hessian_block                5      22          -0.774753          -0.150176           0.092725           0.504878           0.505864           0.287571          -0.298078           0.184920           0.286548
hessian_block                5      23          -2.494835           2.248614           2.103846           1.884464          -2.497158          -2.129822           1.912237          -2.372312          -1.948540
hessian_block                5      24          -0.008922           0.507951          -0.165840          -0.327491           0.335727          -0.397210          -0.086250          -0.362508           0.149632
hessian_block                6       6          10.490084          -0.152121          -2.452019          -0.152121          11.536225           0.976284          -2.452019           0.976284           3.125370
hessian_block                6       7           0.081458           0.120668           0.158293           0.262757          -0.058797          -0.002897           0.181172           0.313277          -0.152363
hessian_block                6       8          -0.450784          -0.310343           0.182808          -0.039774           0.866875           0.214568          -0.002857          -0.180910           0.018617
hessian_block                6       9           0.380447           0.017183          -0.190300          -0.205007           0.474509          -0.177859           0.392204           0.088798          -0.076717
hessian_block                6      10           0.269281           0.284442          -0.101209           0.024362           0.651032          -0.065506          -0.034237           0.310381           0.028868
hessian_block                6      11           0.053546           0.037154           0.074076           0.025872          -0.820159           0.148882          -0.020930           0.438698          -0.140755
hessian_block                6      12           0.297841          -0.385055           0.229320           0.972003           0.225546          -0.251395          -0.308527           0.055172           0.104861
hessian_block                6      13           0.042238           0.471394           0.019160           0.274851          -0.178959          -0.031688           0.097710          -0.496299          -0.108185
hessian_block                6      14          -0.256459           0.197243          -0.050149          -0.197481           0.188785           0.091809          -0.255450          -0.164336           0.187898
hessian_block                6      15          -0.878735           0.593963           0.195112           0.428289          -3.641052          -0.348560           0.624967          -0.459422          -0.494554
hessian_block                6      16          -0.662338           0.581850           0.120519           0.244150          -0.263898          -0.464010          -0.341663           0.151660           0.304336
hessian_block                6      17           0.131271          -0.082946          -0.003446          -0.218586          -0.330475           0.055258          -0.112315          -0.041517          -0.005967
hessian_block                6      18           0.312414           0.227847          -0.122980           0.084037          -0.612117           0.120100           0.094883          -0.008279           0.043301
hessian_block                6      19          -2.583371           0.485917           0.680162          -1.017784          -0.556605           0.432721           0.997655           0.481380          -0.410430
hessian_block                6      20           0.045938          -0.266900          -0.132122          -0.003177           0.929725          -0.162041           0.040324           0.036340          -0.005255
hessian_block                6      21           0.139470          -0.268645          -0.037369           0.311410          -0.127201          -0.129774          -0.126822          -0.253021           0.182031
hessian_block                6      22          -0.427672           0.292960           0.064569           0.107007          -0.869963           0.273331          -0.372693           0.012837           0.213810
hessian_block                6      23           0.482344          -0.311196          -0.142734          -0.241151           0.707325           0.037625           0.224875           0.016087          -0.081967
hessian_block                6      24          -1.071170           0.413331           0.557602           0.779585          -4.268899          -0.581167           0.288644          -0.914253          -0.338406
hessian_block                7       7           9.958644          -0.015985          -2.235022          -0.015985           9.397705          -0.962318          -2.235022          -0.962318           3.118755
hessian_block                7       8           0.059278          -0.216613           0.005957           0.608961           0.101978          -0.142777           0.063919          -0.114450           0.076437
hessian_block                7       9           0.117286           0.257656          -0.005022          -0.571436          -0.159825           0.252443           0.085535           0.019699          -0.012822