# 
# This is the geometry file that corresponds to the current relaxation step.
# If you do not want this file to be written, set the "write_restart_geometry" flag to .false.
#  aims_uuid : 3FA0F2DA-87C6-43FF-AEDB-0328E0BF8162                                
# 
lattice_vector      3.49899465     -0.00000000      0.00000000
lattice_vector     -1.74946941      3.03016990     -0.00000000
lattice_vector     -0.00000000     -0.00000000     13.88640099
atom       0.00079041      2.01985204      3.47764062 Mo
atom       1.74818489      1.01033760     10.40885104 Mo
atom      -0.00083916      2.02049529     12.23528722 Te
atom       1.75072286      1.00986901      5.30363906 Te
atom       1.75054774      1.00966067      1.65122430 Te
atom      -0.00083101      2.02029510      8.58256073 Te
# 
# What follows is the current estimated Hessian matrix constructed by the BFGS algorithm.
# This is NOT the true Hessian matrix of the system.
# If you do not want this information here, switch it off using the "hessian_to_restart_geometry" keyword.
# 
trust_radius             0.0209452973
hessian_block                1       1          14.795248          -0.338765           3.431700          -0.338765           8.190181           1.710812           3.431700           1.710812          22.411517
hessian_block                1       2          -4.067200          -0.436865          -1.699029          -0.121904          -5.190996          -1.921602          -0.790565          -0.875879          -0.575113
hessian_block                1       3           2.015860           0.246275           0.458141           0.184538           2.540105           1.174849           0.792198           0.018253           0.084401
hessian_block                1       4          -6.290616           0.118835          -1.316607           0.277531          -3.105263          -1.072548          -2.653508          -0.476975          -9.272646
hessian_block                1       5          -6.487028           0.170090          -1.309267           0.037095          -3.031423          -1.062192          -0.682565          -1.216217          -9.896820
hessian_block                1       6           2.033735           0.240427           0.435063          -0.038496           2.597394           1.170680          -0.097260           0.840005          -0.751340
hessian_block                2       2          14.293532           0.412587          -0.079252           0.412587           8.634730           0.958426          -0.079252           0.958426          18.426973
hessian_block                2       3          -6.121186          -0.235119           0.163498          -0.100156          -3.267785          -0.576567           0.977715          -0.080057          -8.472831
hessian_block                2       4           2.096080           0.107250           0.242531           0.370284           2.597560           0.474360          -0.895681           0.648791           0.689019
hessian_block                2       5           1.890455           0.067710           0.311516           0.092549           2.538115           0.542856           2.203119           1.258489           0.835923
hessian_block                2       6          -6.091682          -0.230524           0.152271          -0.338399          -3.311624          -0.523197          -0.506871          -0.864048          -8.903972
hessian_block                3       3           5.320891           0.080888          -0.454467           0.080888           3.907193           0.062697          -0.454467           0.062697           9.908842
hessian_block                3       4          -1.010609          -0.127831          -0.399658          -0.212175          -1.257702           0.046254           0.695850          -0.499953           2.346760
hessian_block                3       5          -0.910611          -0.116866          -0.472846          -0.076766          -1.239232          -0.039026          -0.998664          -0.646222          -2.992329
hessian_block                3       6           2.705654           0.079426          -0.442943           0.196898           1.317419          -0.008121           0.135641           0.485196           1.125157
hessian_block                4       4           5.366602          -0.095554           1.044017          -0.095554           3.859171           0.328440           1.044017           0.328440           9.808336
hessian_block                4       5           2.858428          -0.132827           1.111853           0.018805           1.205777           0.416612           0.266812           0.715331           0.704692
hessian_block                4       6          -1.019884          -0.207258           0.697469          -0.021506          -1.299543          -0.416915           0.162905          -0.491838          -2.276161
hessian_block                5       5           5.570884           0.003165           0.190863           0.003165           3.783302           0.616373           0.190863           0.616373          10.616628
hessian_block                5       6          -0.922129          -0.074848          -0.979565           0.008727          -1.256540          -0.727754           0.167882          -0.474623           2.731906
hessian_block                6       6           5.294306           0.192776           0.137705           0.192776           3.952894           0.505307           0.137705           0.505307          10.074410
hessian_block_lv             1       1          31.481165           0.000000          -0.000000           0.000000          25.000000           0.000000          -0.000000           0.000000          25.000000
hessian_block_lv             1       2          -2.839613          -0.000000           0.000000           4.918353           0.000000          -0.000000          -0.000000          -0.000000           0.000000
hessian_block_lv             1       3          -0.000000          -0.000000          -0.000000          -0.000000           0.000000          -0.000000           0.128053          -0.000000           0.000000
hessian_block_lv             2       2          26.932241          -3.346739          -0.000000          -3.346739          30.796723           0.000000          -0.000000           0.000000          25.000000
hessian_block_lv             2       3          -0.000000           0.000000          -0.000000           0.000000          -0.000000           0.000000          -0.044696           0.077416          -0.000000
hessian_block_lv             3       3          25.000000          -0.000000           0.000000          -0.000000          25.000000          -0.000000           0.000000          -0.000000           0.928364
hessian_block_lv_atom        1       1          -7.716517           0.000000          -0.000000           4.169421           0.000000           0.000000          -0.803788          -0.000000           0.000000
hessian_block_lv_atom        1       2           9.757628          -0.000000           0.000000          -4.200571          -0.000000           0.000000           0.084930           0.000000           0.000000
hessian_block_lv_atom        1       3          -4.650792           0.000000          -0.000000           2.010265           0.000000          -0.000000           2.717930          -0.000000          -0.000000
hessian_block_lv_atom        1       4           3.653685          -0.000000           0.000000          -1.918229          -0.000000           0.000000           2.430152           0.000000          -0.000000
hessian_block_lv_atom        1       5           3.595561          -0.000000           0.000000          -2.000173          -0.000000           0.000000          -1.726310           0.000000          -0.000000
hessian_block_lv_atom        1       6          -4.639566           0.000000          -0.000000           1.939287           0.000000          -0.000000          -2.702913          -0.000000           0.000000
hessian_block_lv_atom        2       1           2.564129          -4.441201           0.000000          -3.618069           6.266679           0.000000          -0.708662           1.227437           0.000000
hessian_block_lv_atom        2       2          -3.385719           5.864237          -0.000000           3.735473          -6.470028          -0.000000           0.284851          -0.493378          -0.000000
hessian_block_lv_atom        2       3           1.566716          -2.713631           0.000000          -1.804875           3.126136           0.000000          -1.305831           2.261766           0.000000
hessian_block_lv_atom        2       4          -1.161425           2.011646          -0.000000           1.729035          -2.994776          -0.000000          -0.784775           1.359269          -0.000000
hessian_block_lv_atom        2       5          -1.147757           1.987974          -0.000000           1.745376          -3.023081          -0.000000           1.515904          -2.625623           0.000000
hessian_block_lv_atom        2       6           1.564057          -2.709026           0.000000          -1.786940           3.095070           0.000000           0.998511          -1.729471           0.000000
hessian_block_lv_atom        3       1           0.000000           0.000000          -0.189291           0.000000           0.000000           0.036882          -0.000000           0.000000          -1.328068
hessian_block_lv_atom        3       2          -0.000000           0.000000           0.081087          -0.000000          -0.000000          -0.030865          -0.000000          -0.000000          -0.093054
hessian_block_lv_atom        3       3           0.000000          -0.000000          -0.075704           0.000000           0.000000           0.045603           0.000000           0.000000           0.526090
hessian_block_lv_atom        3       4          -0.000000          -0.000000           0.137193          -0.000000           0.000000          -0.030305           0.000000          -0.000000          -0.276186
hessian_block_lv_atom        3       5          -0.000000          -0.000000           0.120475          -0.000000          -0.000000          -0.049616           0.000000           0.000000           0.172456
hessian_block_lv_atom        3       6           0.000000          -0.000000          -0.073759           0.000000          -0.000000           0.028300           0.000000           0.000000           0.998762
