# 
# This is the geometry file that corresponds to the current relaxation step.
# If you do not want this file to be written, set the "write_restart_geometry" flag to .false.
#  aims_uuid : E2A4B1AC-1A3B-4BF1-A469-61838C51F725                                
# 
lattice_vector     13.58361067      0.00000000     -0.00000000
lattice_vector     -0.00000000      5.69688913      0.00000000
lattice_vector     -0.00000000      0.00000000      5.71628071
atom       1.51336773      1.43290002      0.91201182 Pd
atom       5.27840839      1.41567535      3.76982009 Pd
atom       8.30476805      1.41539965      4.80425301 Pd
atom      12.06992322      1.43335184      1.94616195 Pd
atom      12.07019954      4.26403352      4.80401363 Pd
atom       8.30505826      4.28171423      1.94588183 Pd
atom       5.27861841      4.28079146      0.91173644 Pd
atom       1.51376796      4.26376095      3.77025339 Pd
atom       5.69592748      0.74100318      1.60972235 P
atom       1.09636384      2.10699172      4.46794047 P
atom      12.48772592      2.10703594      4.10669524 P
atom       7.88795927      0.74218444      1.24857985 P
atom       7.88753078      4.95501592      4.10651597 P
atom      12.48730718      3.58997616      1.24806277 P
atom       1.09585312      3.58967750      1.60990774 P
atom       5.69556669      4.95564725      4.46809616 P
atom       4.73059223      2.07314999      0.25958461 S
atom       2.06083355      0.77424754      3.11792325 S
atom      11.52229773      0.77521391      5.45691847 S
atom       8.85287243      2.07490593      2.59853801 S
atom       8.85326360      3.62320939      5.45678728 S
atom      11.52282567      4.92262620      2.59817619 S
atom       2.06118497      4.92150109      0.25962782 S
atom       4.73111200      3.62265635      3.11816012 S
# 
# What follows is the current estimated Hessian matrix constructed by the BFGS algorithm.
# This is NOT the true Hessian matrix of the system.
# If you do not want this information here, switch it off using the "hessian_to_restart_geometry" keyword.
# 
trust_radius             0.4000000060
hessian_block                1       1           3.073197          -1.952811           1.157381          -1.952811          10.974087           0.085385           1.157381           0.085385          10.813302
hessian_block                1       2          -0.146457          -0.247248          -0.115402          -0.039752           0.774652          -0.109299           0.224789          -0.206434          -0.908002
hessian_block                1       3           0.245927           0.350968           0.208877          -0.080013          -0.252082           0.629258          -0.177714           0.338311          -0.295259
hessian_block                1       4          -0.091939           0.079231          -0.036688           0.089579           0.667056           0.753640          -0.220130          -0.231833          -0.061412
hessian_block                1       5          -0.183824          -0.069868          -0.139628          -0.052253          -1.616744           0.000729          -0.161903          -0.027546          -1.295058
hessian_block                1       6           0.142479           0.239250           0.116958           0.065644          -0.731369           0.098186          -0.286017           0.105407           0.933708
hessian_block                1       7          -0.258328          -0.373399          -0.203358           0.029544           0.169032          -0.608082           0.134687          -0.410395           0.313665
hessian_block                1       8           0.079876          -0.064204           0.046768          -0.068819          -0.623894          -0.773351           0.236101           0.246757           0.061705
hessian_block                1       9          -0.027463           0.053993          -0.133549           0.067011          -0.545117           0.283246           0.022636           0.529320           0.423763
hessian_block                1      10          -0.300902          -0.007639          -0.866612           0.131571          -0.606870           1.124860          -1.043056           0.866366          -4.650412
hessian_block                1      11           0.033656           0.198223           0.012964           0.029535           0.429502          -0.628140           0.156950          -0.327718          -0.070017
hessian_block                1      12          -0.032925          -0.187400           0.198032           0.342524           0.033841          -0.081691          -0.034839           0.311107          -0.117931
hessian_block                1      13           0.013033          -0.076951           0.139645          -0.118165           0.460101          -0.261843          -0.023678          -0.530699          -0.423321
hessian_block                1      14           0.060008           0.311128          -0.041948           0.194139           0.074108           0.260846           0.132930           0.475794           0.249672
hessian_block                1      15          -0.271469           0.738374           0.323350           0.882254          -4.897993          -0.929077           0.184469          -1.189697          -0.557946
hessian_block                1      16           0.015123           0.158965          -0.190516          -0.286580           0.059411           0.057937           0.065945          -0.259865           0.104814
hessian_block                1      17           0.220887           0.105465           0.167893          -0.125223           0.064833          -0.101302          -0.143960           0.294046           0.192400
hessian_block                1      18          -0.234081           0.431504          -0.822390           0.209704          -0.527359           1.001326          -0.560053           0.541623          -3.067320
hessian_block                1      19           0.136324          -0.145084           0.069833          -0.082800           0.322143          -0.122944           0.013764           0.061000           0.486575
hessian_block                1      20          -0.106147           0.013545          -0.290309          -0.184897           0.666076          -0.543780           0.125847          -0.154282           0.077171
hessian_block                1      21          -0.211896          -0.071867          -0.174298           0.112985          -0.082210           0.106249           0.179564          -0.238400          -0.206800
hessian_block                1      22           0.039958          -0.223279           0.182790          -0.016088           0.238036          -0.317210          -0.076079           0.134720           0.787411
hessian_block                1      23          -0.330280           0.704029           0.112141           0.638083          -2.432132          -0.456471           0.176647          -0.636353          -0.695773
hessian_block                1      24           0.135242           0.035075           0.278066           0.214828          -0.617108           0.531530          -0.084283           0.223384          -0.094934
hessian_block                2       2           3.515777          -2.049637          -1.151225          -2.049637          10.577371          -0.245141          -1.151225          -0.245141          10.385588
hessian_block                2       3          -0.441150           0.018631           0.236608           0.045872           0.572788          -0.728808           0.029969           0.819080           0.066689
hessian_block                2       4           0.345964           0.038386          -0.113101          -0.188217          -0.018959          -0.705133           0.193517          -0.552171          -0.122137
hessian_block                2       5           0.146313           0.047172          -0.233262           0.247009          -0.785658           0.220144           0.116073           0.135781           0.876317
hessian_block                2       6          -0.620986           0.039658           0.129451           0.034782          -1.268106           0.195819           0.136522           0.233235          -0.970627
hessian_block                2       7           0.421927          -0.001187          -0.268773          -0.047519          -0.502906           0.659971          -0.042424          -0.774751          -0.131695
hessian_block                2       8          -0.346238          -0.047031           0.124145           0.187683          -0.011799           0.741882          -0.193595           0.549157           0.126317
hessian_block                2       9          -0.769933          -0.051184           1.064421          -0.030812          -0.549931          -1.469343           0.841428          -1.322846          -4.678083
hessian_block                2      10           0.084390          -0.002426          -0.261693          -0.214883           0.199406          -0.123543           0.137013          -0.729254           0.103507
hessian_block                2      11          -0.167912          -0.115377           0.054480           0.260200           0.323365           0.326635           0.066954           0.104672           0.156697
hessian_block                2      12           0.450432           0.281201          -0.395870           0.151883          -0.045622           0.471254          -0.159172           0.507598           0.031482
hessian_block                2      13           0.529799           0.374725          -0.178281           0.352749           0.075280           0.002599           0.048074          -0.052220           0.266804
hessian_block                2      14          -0.084080           0.002788           0.261063           0.214681          -0.205700           0.130752          -0.136561           0.755905          -0.135914
hessian_block                2      15           0.167918           0.109326          -0.047349          -0.259749          -0.307871          -0.345047          -0.067530          -0.136292          -0.118636
hessian_block                2      16          -0.692241           0.671916           0.029687           0.770586          -4.475004           1.177615          -0.158549           1.009777          -0.600855
hessian_block                2      17          -0.420904           0.317012           0.857256           0.259945          -0.432900          -0.719960           0.693821          -0.120807          -2.688960
hessian_block                2      18           0.202177           0.019135           0.022462           0.009835          -0.291629          -0.243450          -0.119357           0.253971           0.228335
hessian_block                2      19          -0.081619           0.072005           0.204050          -0.367778           0.457955          -0.126909          -0.157703          -0.066807          -0.189400
hessian_block                2      20           0.360639          -0.072899           0.060725          -0.351253           0.535002           0.102493           0.254293          -0.844909           0.479998
hessian_block                2      21           0.224856          -0.138144          -0.185213          -0.055421           0.173396           0.025061          -0.057301          -0.596712           0.460479
hessian_block                2      22          -0.214441          -0.023491          -0.022617          -0.012056           0.304617           0.226474           0.116771          -0.255985          -0.227446
hessian_block                2      23           0.082071          -0.060551          -0.217899           0.368163          -0.438517           0.103613           0.157290           0.050307           0.209091
hessian_block                2      24          -0.546300           0.609723          -0.193854           0.921186          -2.659230           0.529456          -0.432905           1.387709          -0.619549
hessian_block                3       3           3.361295           1.915103          -1.290152           1.915103          10.741724           0.388437          -1.290152           0.388437          10.912350
hessian_block                3       4          -0.182095           0.020999          -0.068335           0.349324           0.515043          -0.373808          -0.231333          -0.110402          -1.139854
hessian_block                3       5          -0.254555           0.089243           0.190418          -0.337014           0.237646          -0.357733          -0.240454          -0.596507           0.339971
hessian_block                3       6           0.415687          -0.042810          -0.035341           0.025045          -0.609644          -0.885974          -0.345467           0.838426           0.070001
hessian_block                3       7          -0.485721           0.119008           0.301611           0.019700          -1.317523          -0.187250           0.207150          -0.228428          -1.307586
hessian_block                3       8           0.193248          -0.032531           0.052977          -0.312507          -0.553567           0.321434           0.235698           0.106062           1.134090
hessian_block                3       9           0.305999          -0.388672           0.125277           0.099813           0.378064          -0.289757           0.057856          -0.274787          -0.171078
hessian_block                3      10          -0.105701           0.279122           0.031832          -0.063159           0.488440           0.222982          -0.179585          -0.264477          -0.055553
hessian_block                3      11           0.089465          -0.179041          -0.107068           0.019590          -0.118023           0.116450           0.100194           0.374070           0.211291
hessian_block                3      12          -0.586507           0.224980           0.776192           0.024381          -0.863469           0.761808           0.972880           1.497586          -4.456444
hessian_block                3      13          -0.570779          -0.517412          -0.431421          -1.103313          -4.744611          -1.159796          -0.376533          -1.280551          -0.444298
hessian_block                3      14           0.104864          -0.278422          -0.031055           0.070231          -0.495677          -0.233234           0.146874           0.298613           0.101745
hessian_block                3      15          -0.082559           0.171729           0.097043          -0.037993           0.137194          -0.090201          -0.061972          -0.414009          -0.265511
hessian_block                3      16           0.318214          -0.500404           0.172105          -0.257969           0.232837           0.502270          -0.034960          -0.171675          -0.021738
hessian_block                3      17           0.352642           0.030417          -0.176231          -0.001001           0.270567          -0.096573          -0.070214           0.581679           0.478371
hessian_block                3      18          -0.099289          -0.118219           0.189195           0.068223           0.240480          -0.554604           0.079514           0.093021           0.050833
hessian_block                3      19           0.136621           0.069550          -0.120619           0.061083          -0.044044           0.204918           0.004178           0.132898           0.375928
hessian_block                3      20          -0.452163          -0.337663           0.809007          -0.166197          -0.315615           1.275850           0.710366          -0.221328          -3.344380
hessian_block                3      21          -0.504109          -0.638491          -0.048834          -0.584690          -2.340297          -0.467157          -0.055889          -1.231014          -0.755030
hessian_block                3      22           0.101616           0.115572          -0.192641          -0.084809          -0.223240           0.577920          -0.078276          -0.094193          -0.052820
hessian_block                3      23          -0.163083          -0.052697           0.137769          -0.082025           0.067799          -0.171352           0.013006          -0.153072          -0.404501
hessian_block                3      24           0.302134           0.084781          -0.233985           0.008584          -0.004789          -0.662022          -0.008365           0.829199           0.972780
hessian_block                4       4           3.131793           2.104739           1.207188           2.104739          10.760400           0.181435           1.207188           0.181435          10.862971
hessian_block                4       5           0.069269          -0.105815           0.230579          -0.070883          -0.639738           0.245392           0.037780          -0.812459           0.054107
hessian_block                4       6          -0.348842           0.177560          -0.194167          -0.022518           0.082819           0.563448           0.075239           0.555371           0.094944
hessian_block                4       7           0.174005          -0.380544           0.225666          -0.052053          -0.638842           0.088549           0.041627           0.268201           1.120265
hessian_block                4       8          -0.232450          -0.073335          -0.188610          -0.076481          -1.360925          -0.260680          -0.189777          -0.264344          -1.352217
hessian_block                4       9          -0.213013           0.035943          -0.128618          -0.287285          -0.257425           0.200521          -0.006667           0.129723           0.037107
hessian_block                4      10           0.040516          -0.084621           0.240797          -0.108792           0.162348           0.249451           0.052551           0.018239           0.202219
hessian_block                4      11          -0.334619          -0.110597          -0.892163          -0.020261          -0.415096          -1.318734          -0.914697          -1.298429          -4.774648
hessian_block                4      12           0.130037           0.001688           0.364077           0.144738          -0.051980           0.084667          -0.055690          -0.170076           0.168603
hessian_block                4      13           0.204288          -0.070871           0.122213           0.255530           0.131973          -0.222983           0.006220          -0.132151          -0.037440
hessian_block                4      14          -0.282952          -0.846317           0.097315          -0.812093          -4.601247           1.314974           0.251557           1.487699          -0.829137
hessian_block                4      15           0.096882          -0.183190          -0.014642          -0.307958          -0.152847          -0.074386           0.040402          -0.018643           0.376075
hessian_block                4      16          -0.140815          -0.044913          -0.371879          -0.110084           0.189315          -0.059539           0.074761           0.246123          -0.154845
hessian_block                4      17          -0.094604           0.114838          -0.261885           0.157467           0.654861           0.198892           0.106228           0.232007          -0.228203
hessian_block                4      18           0.162952           0.122489          -0.072388           0.055681           0.368165           0.474735          -0.091163          -0.269979           0.505393
hessian_block                4      19          -0.265337          -0.327446          -0.817162          -0.430636          -0.639032          -0.547034          -0.794610          -0.457643          -2.915446
hessian_block                4      20           0.197147          -0.027295           0.032658          -0.124534          -0.008418          -0.116004           0.206291          -0.017713           0.391329
hessian_block                4      21           0.107947          -0.062020           0.271123          -0.163554          -0.679101          -0.203858          -0.085644          -0.150848           0.242645
hessian_block                4      22          -0.346950          -0.692255           0.251145          -0.632446          -2.480216           0.106493           0.269360           0.867357          -0.708921
hessian_block                4      23           0.064351           0.100024           0.174080           0.217338           0.330849          -0.139289           0.165234          -0.187614           0.641495
hessian_block                4      24          -0.191532           0.101251          -0.017382           0.145468           0.080996           0.128355          -0.178063           0.119045          -0.372893
hessian_block                5       5           3.085053          -1.953790           1.177428          -1.953790          10.945167           0.117941           1.177428           0.117941          10.803444
hessian_block                5       6          -0.141931          -0.239638          -0.116170          -0.075607           0.746428          -0.133867           0.300506          -0.128697          -0.880251
hessian_block                5       7           0.268193           0.357472           0.239379          -0.033791          -0.162480           0.593274          -0.143151           0.423100          -0.343092
hessian_block                5       8          -0.096196           0.062656          -0.023916           0.077043           0.611034           0.804228          -0.220348          -0.240340          -0.052434
hessian_block                5       9           0.027436          -0.053613           0.132354          -0.054475           0.524887          -0.237665          -0.016017          -0.540138          -0.398333
hessian_block                5      10           0.066917           0.301719          -0.018856           0.200266           0.051084           0.299636           0.150670           0.515075           0.228087
hessian_block                5      11          -0.280381           0.738880           0.309211           0.881838          -4.859398          -0.978930           0.148516          -1.210640          -0.590002
hessian_block                5      12           0.037610           0.179753          -0.180199          -0.361601          -0.003734           0.013796           0.041088          -0.320923           0.141140
hessian_block                5      13          -0.011597           0.074343          -0.133351           0.110667          -0.447864           0.234443           0.017163           0.541349           0.398261
hessian_block                5      14          -0.306954           0.003905          -0.889982           0.115945          -0.596323           1.088383          -1.016912           0.892788          -4.638932
hessian_block                5      15           0.033173           0.184738           0.029307           0.054590           0.426362          -0.584198           0.141565          -0.382224          -0.026056
hessian_block                5      16          -0.018056          -0.154100           0.179011           0.300144          -0.080767          -0.009937          -0.075253           0.274538          -0.139064
hessian_block                5      17          -0.240612          -0.096066          -0.191868           0.111756          -0.047345           0.059917           0.151408          -0.301117          -0.176106
hessian_block                5      18           0.034479          -0.219551           0.169355          -0.012010           0.265735          -0.345298          -0.077572           0.135858           0.784750
hessian_block                5      19          -0.324055           0.722784           0.098518           0.667081          -2.430263          -0.411946           0.170052          -0.666066          -0.668687
hessian_block                5      20           0.103486          -0.009453           0.280929           0.192522          -0.677307           0.569479          -0.143156           0.180914          -0.138248
hessian_block                5      21           0.204705           0.061067           0.195783          -0.103296           0.062186          -0.060365          -0.185162           0.251631           0.177616
hessian_block                5      22          -0.231839           0.422826          -0.808311           0.227900          -0.521711           1.024425          -0.560290           0.539589          -3.064300
hessian_block                5      23           0.148813          -0.136173           0.078910          -0.080512           0.365781          -0.174716          -0.006139           0.052347           0.465633
hessian_block                5      24          -0.135447          -0.034616          -0.279029          -0.225401           0.633019          -0.567868           0.097498          -0.243516           0.141239
hessian_block                6       6           3.516541          -2.054505          -1.141652          -2.054505          10.655045          -0.391541          -1.141652          -0.391541          10.641288
hessian_block                6       7          -0.433856          -0.042521           0.364696           0.042385           0.527486          -0.695525           0.024408           0.802453           0.044382
hessian_block                6       8           0.348609           0.034395          -0.093956          -0.178703          -0.041278          -0.617615           0.194046          -0.559208          -0.102038
hessian_block                6       9           0.529705           0.357130          -0.158163           0.361984          -0.048201           0.220869           0.053154          -0.085811           0.343636
hessian_block                6      10          -0.079482          -0.028077           0.333364           0.222669          -0.246887           0.236922          -0.138759           0.744058          -0.138546
hessian_block                6      11           0.164667           0.136736          -0.104292          -0.270202          -0.265093          -0.463204          -0.076377          -0.050014          -0.285183
hessian_block                6      12          -0.689425           0.625985           0.110512           0.757446          -4.316397           0.883720          -0.153225           1.020390          -0.580479
hessian_block                6      13          -0.769506          -0.078087           1.105136          -0.037883          -0.579236          -1.474171           0.835843          -1.292875          -4.750282
hessian_block                6      14           0.079188           0.027570          -0.332297          -0.222796           0.255265          -0.249025           0.139802          -0.780244           0.193543
hessian_block                6      15          -0.164994          -0.128632           0.092305           0.270592           0.244228           0.494315           0.075200           0.092804           0.220705
hessian_block                6      16           0.447932           0.272280          -0.401532           0.163132          -0.037101           0.531465          -0.165189           0.590524          -0.119033
hessian_block                6      17           0.219707          -0.076965          -0.299073          -0.064251           0.214059          -0.084378          -0.054135          -0.577419           0.461805
hessian_block                6      18          -0.217836          -0.003276          -0.068418          -0.016863           0.321113           0.172279           0.116253          -0.249626          -0.239752
hessian_block                6      19           0.079676          -0.059506          -0.233364           0.378141          -0.522651           0.280242           0.162102           0.038913           0.255303
hessian_block                6      20          -0.547775           0.658217          -0.267478           0.926592          -2.653878           0.561615          -0.443810           1.518547          -0.868609
hessian_block                6      21          -0.416524           0.319130           0.881905           0.268894          -0.502706          -0.569530           0.689156          -0.041618          -2.828220
hessian_block                6      22           0.205180           0.003593           0.061773           0.015093          -0.339937          -0.144836          -0.118834           0.251031           0.236833
hessian_block                6      23          -0.079491           0.043990           0.256821          -0.377457           0.496397          -0.240825          -0.162591          -0.016655          -0.288611
hessian_block                6      24           0.361278          -0.034803           0.012929          -0.358288           0.619641          -0.054518           0.263877          -0.851319           0.555483
hessian_block                7       7           3.402973           1.985186          -1.240398           1.985186          10.622618           0.245171          -1.240398           0.245171          10.754907
hessian_block                7       8          -0.186725           0.057251          -0.031677           0.338507           0.656366          -0.233720          -0.230613          -0.086617          -1.116545
hessian_block                7       9          -0.548472          -0.543360          -0.465144          -0.994623          -4.713209          -1.175115          -0.360060          -1.219706          -0.394600